*Heading
 File created by HOHQMesh
*NODE
1,       1.330565959977,       1.229767358194,       0.000000000000
2,       2.616241180028,       1.225205705508,       0.000000000000
3,       3.895062695448,       1.224328209313,       0.000000000000
4,       5.195485682639,       1.221477158162,       0.000000000000
5,       6.465393456000,       1.253448752178,       0.000000000000
6,       8.901885299181,       1.278261972456,       0.000000000000
7,      10.315222472277,       1.231174548109,       0.000000000000
8,      11.501761663763,       1.159994453128,       0.000000000000
9,      12.701996226628,       1.225947332638,       0.000000000000
10,      14.063226357450,       1.211355542100,       0.000000000000
11,      15.341223738089,       1.224429704814,       0.000000000000
12,      16.619159667795,       1.224463376491,       0.000000000000
13,      17.897667375675,       1.224452453422,       0.000000000000
14,      19.176237649831,       1.224452409323,       0.000000000000
15,      20.454809111625,       1.224452409304,       0.000000000000
16,      21.733380552778,       1.224452409304,       0.000000000000
17,      23.011951948940,       1.224452409304,       0.000000000000
18,      24.290523365723,       1.224452409304,       0.000000000000
19,      25.569094787727,       1.224452409304,       0.000000000000
20,      26.847666223268,       1.224452409304,       0.000000000000
21,      28.126237658420,       1.224452409304,       0.000000000000
22,      29.404809034482,       1.224452409338,       0.000000000000
23,      30.683380294135,       1.224452463327,       0.000000000000
24,      31.961916812727,       1.224467755174,       0.000000000000
25,      33.239166273247,       1.225206737536,       0.000000000000
26,      34.512006890296,       1.229767372385,       0.000000000000
27,       1.287993033489,       2.430455259720,       0.000000000000
28,       2.560834660176,       2.435495362473,       0.000000000000
29,       3.838216843267,       2.435947104266,       0.000000000000
30,       5.117652176879,       2.429187287125,       0.000000000000
31,       6.406153073994,       2.425851293567,       0.000000000000
32,       8.920436247849,       2.438474294760,       0.000000000000
33,      10.427849865812,       2.625469362525,       0.000000000000
34,      12.564675176764,       2.628126088535,       0.000000000000
35,      13.997495739756,       2.501941363956,       0.000000000000
36,      15.293428619802,       2.440071888289,       0.000000000000
37,      16.563401838343,       2.436351595698,       0.000000000000
38,      17.841593128223,       2.436294796124,       0.000000000000
39,      19.120160548504,       2.436294641862,       0.000000000000
40,      20.398731922157,       2.436294641792,       0.000000000000
41,      21.677303373321,       2.436294641792,       0.000000000000
42,      22.955874777526,       2.436294641792,       0.000000000000
43,      24.234446218015,       2.436294641792,       0.000000000000
44,      25.513017657333,       2.436294641792,       0.000000000000
45,      26.791589035849,       2.436294641792,       0.000000000000
46,      28.070160493065,       2.436294641792,       0.000000000000
47,      29.348731931201,       2.436294641757,       0.000000000000
48,      30.627303166854,       2.436294587374,       0.000000000000
49,      31.905846517893,       2.436278962719,       0.000000000000
50,      33.183763663209,       2.435497788793,       0.000000000000
51,      34.469434018850,       2.430455275744,       0.000000000000
52,       0.721990803680,       0.619214782947,       0.000000000000
53,       1.419158844564,       0.618043158005,       0.000000000000
54,       0.671359952715,       1.231392769853,       0.000000000000
55,       2.078773214095,       0.615162618455,       0.000000000000
56,       2.719402740112,       0.613223247560,       0.000000000000
57,       1.976546414257,       1.227034782058,       0.000000000000
58,       3.358505469056,       0.612573125886,       0.000000000000
59,       3.998413943978,       0.612381840893,       0.000000000000
60,       3.255116055669,       1.224572439118,       0.000000000000
61,       4.642850322859,       0.611946058607,       0.000000000000
62,       5.312878727260,       0.610667696075,       0.000000000000
63,       4.539408410714,       1.223660694829,       0.000000000000
64,       6.106837254763,       0.612477660525,       0.000000000000
65,       5.784717023085,       1.214236037295,       0.000000000000
66,       6.628000893497,       1.031288946474,       0.000000000000
67,       6.193385500064,       1.218394889738,       0.000000000000
68,       6.728694708234,       1.119646871482,       0.000000000000
69,       6.699922993091,       1.293143100350,       0.000000000000
70,       8.261277428388,       0.652456323715,       0.000000000000
71,       8.943033438835,       0.614401136782,       0.000000000000
72,       8.378922463655,       1.166087278396,       0.000000000000
73,       7.974758437215,       0.944566013532,       0.000000000000
74,       8.007480604679,       1.210815874056,       0.000000000000
75,       9.637729297200,       0.560834188929,       0.000000000000
76,      10.169770790362,       0.683817578568,       0.000000000000
77,       9.588549777207,       1.220660799764,       0.000000000000
78,       9.930378516847,       0.273755078856,       0.000000000000
79,      10.197132149054,       0.313150648264,       0.000000000000
80,      10.867960361615,       0.619706252754,       0.000000000000
81,      11.506406607018,       0.615311493173,       0.000000000000
82,      10.841200822258,       1.247789318658,       0.000000000000
83,      10.538058946349,       0.318774324641,       0.000000000000
84,      10.866343414914,       0.311308480936,       0.000000000000
85,      10.546827859001,       0.649677579224,       0.000000000000
86,      11.187228314593,       0.307662970958,       0.000000000000
87,      11.507016548707,       0.307117347988,       0.000000000000
88,      11.186828613857,       0.616053450116,       0.000000000000
89,      10.588920077851,       0.903568620113,       0.000000000000
90,      10.855695538500,       0.928897711147,       0.000000000000
91,      11.191552660429,       0.927742563614,       0.000000000000
92,      11.504215347629,       0.922430870092,       0.000000000000
93,      11.240288803036,       1.285006454111,       0.000000000000
94,      12.145898735162,       0.619540589380,       0.000000000000
95,      12.844840054182,       0.680841108344,       0.000000000000
96,      12.174894518924,       1.247811823312,       0.000000000000
97,      11.826856608140,       0.307662728159,       0.000000000000
98,      12.147879133872,       0.311238102917,       0.000000000000
99,      11.826292910356,       0.616119664511,       0.000000000000
100,      12.476296993404,       0.318452606443,       0.000000000000
101,      12.817075948545,       0.312154613642,       0.000000000000
102,      12.467833116532,       0.648742889362,       0.000000000000
103,      11.818057018068,       0.928641754838,       0.000000000000
104,      12.157164811815,       0.928700316155,       0.000000000000
105,      11.754386452032,       1.292699844377,       0.000000000000
106,      12.426214833192,       0.902160921684,       0.000000000000
107,      13.373324509213,       0.552516877842,       0.000000000000
108,      14.063803512615,       0.599500324087,       0.000000000000
109,      13.424992175306,       1.207168996910,       0.000000000000
110,      13.083580125041,       0.272309734166,       0.000000000000
111,      14.704641857090,       0.609411044127,       0.000000000000
112,      15.343073421921,       0.611928694582,       0.000000000000
113,      14.702741140014,       1.221790291246,       0.000000000000
114,      15.981999087758,       0.612393023748,       0.000000000000
115,      16.621200119919,       0.612439746215,       0.000000000000
116,      15.980078094803,       1.224514699512,       0.000000000000
117,      17.260469992767,       0.612441978673,       0.000000000000
118,      17.899753247665,       0.612441992964,       0.000000000000
119,      17.258390826328,       1.224453334493,       0.000000000000
120,      18.539038532505,       0.612441990039,       0.000000000000
121,      19.178324144703,       0.612441989935,       0.000000000000
122,      18.536952034912,       1.224452410532,       0.000000000000
123,      19.817609909405,       0.612441989934,       0.000000000000
124,      20.456895719842,       0.612441989934,       0.000000000000
125,      19.815523369522,       1.224452409304,       0.000000000000
126,      21.096181524551,       0.612441989934,       0.000000000000
127,      21.735467211872,       0.612441989934,       0.000000000000
128,      21.094094846736,       1.224452409304,       0.000000000000
129,      22.374752784763,       0.612441989934,       0.000000000000
130,      23.014038512564,       0.612441989934,       0.000000000000
131,      22.372666242922,       1.224452409304,       0.000000000000
132,      23.653324265602,       0.612441989934,       0.000000000000
133,      24.292609877357,       0.612441989934,       0.000000000000
134,      23.651237660917,       1.224452409304,       0.000000000000
135,      24.931895630809,       0.612441989934,       0.000000000000
136,      25.571181361835,       0.612441989934,       0.000000000000
137,      24.929809078516,       1.224452409304,       0.000000000000
138,      26.210466954519,       0.612441989934,       0.000000000000
139,      26.849752753621,       0.612441989934,       0.000000000000
140,      26.208380491639,       1.224452409304,       0.000000000000
141,      27.489038636167,       0.612441989934,       0.000000000000
142,      28.128324236018,       0.612441989934,       0.000000000000
143,      27.486951961302,       1.224452409304,       0.000000000000
144,      28.767609791645,       0.612441989934,       0.000000000000
145,      29.406895506578,       0.612441989968,       0.000000000000
146,      28.765523337154,       1.224452409304,       0.000000000000
147,      30.046181199143,       0.612441991632,       0.000000000000
148,      30.685466818553,       0.612442044117,       0.000000000000
149,      30.044094739222,       1.224452410999,       0.000000000000
150,      31.324750712131,       0.612443122469,       0.000000000000
151,      31.964013845233,       0.612457513539,       0.000000000000
152,      31.322663191100,       1.224453535116,       0.000000000000
153,      32.603120155732,       0.612580163831,       0.000000000000
154,      33.241481008267,       0.613223653252,       0.000000000000
155,      32.600966406496,       1.224587703708,       0.000000000000
156,      33.877597166016,       0.615162634316,       0.000000000000
157,      34.512896037422,       0.618043167026,       0.000000000000
158,      33.875696922531,       1.227034827864,       0.000000000000
159,      35.153223428711,       0.619214813099,       0.000000000000
160,      35.152861480710,       1.231392810325,       0.000000000000
161,       0.651080701796,       1.834862243474,       0.000000000000
162,       1.295718819578,       1.833961708618,       0.000000000000
163,       0.647138460560,       2.430034668637,       0.000000000000
164,       1.934756949905,       1.834031615044,       0.000000000000
165,       2.572517423719,       1.834110261174,       0.000000000000
166,       1.924303041238,       2.433492860723,       0.000000000000
167,       3.211067205693,       1.834104851017,       0.000000000000
168,       3.850604462217,       1.833903532394,       0.000000000000
169,       3.199049601391,       2.436119033358,       0.000000000000
170,       4.492074229318,       1.832944101311,       0.000000000000
171,       5.137997394150,       1.830798793390,       0.000000000000
172,       4.477966843236,       2.434330870236,       0.000000000000
173,       5.868989540871,       1.830335773695,       0.000000000000
174,       6.356834634538,       1.834194858209,       0.000000000000
175,       5.683358215111,       2.428611400254,       0.000000000000
176,       6.141534059915,       1.494022087390,       0.000000000000
177,       6.388577647266,       1.530993816068,       0.000000000000
178,       6.117329508638,       2.171519376170,       0.000000000000
179,       6.373294614861,       2.137934534934,       0.000000000000
180,       6.094520117555,       2.436822874723,       0.000000000000
181,       6.900000000000,       1.828623228372,       0.000000000000
182,       7.700000000000,       1.828432300651,       0.000000000000
183,       6.694092178013,       1.547688534674,       0.000000000000
184,       6.900000000000,       1.557396048449,       0.000000000000
185,       6.696605955915,       1.832339788464,       0.000000000000
186,       7.337895774446,       1.559817191867,       0.000000000000
187,       7.700000000000,       1.550228660765,       0.000000000000
188,       7.342757916395,       1.826643060324,       0.000000000000
189,       6.687760078042,       2.114585137759,       0.000000000000
190,       6.900000000000,       2.088980770505,       0.000000000000
191,       6.680225194876,       2.386749877219,       0.000000000000
192,       7.337749632639,       2.078313618139,       0.000000000000
193,       7.700000000000,       2.094459935940,       0.000000000000
194,       8.315835454470,       1.837746650156,       0.000000000000
195,       9.032170867975,       1.827336279037,       0.000000000000
196,       8.354877293935,       2.509487802609,       0.000000000000
197,       8.003758426176,       1.530781462632,       0.000000000000
198,       8.341797183410,       1.529532434751,       0.000000000000
199,       7.995027800383,       1.832933401886,       0.000000000000
200,       8.606727083267,       1.567871115524,       0.000000000000
201,       8.634785796702,       1.841652302405,       0.000000000000
202,       8.001402857250,       2.129801906208,       0.000000000000
203,       8.341156417138,       2.147642386265,       0.000000000000
204,       7.997544087336,       2.443851264406,       0.000000000000
205,       8.610806529641,       2.117074416108,       0.000000000000
206,       9.555684039510,       1.790348568538,       0.000000000000
207,      10.079820264302,       1.787292027202,       0.000000000000
208,       9.539148639611,       2.288705027952,       0.000000000000
209,      10.752283413718,       1.833691274426,       0.000000000000
210,      10.838712930550,       2.468717332278,       0.000000000000
211,      10.570922859440,       1.570963598350,       0.000000000000
212,      10.874912310542,       1.596450681576,       0.000000000000
213,      10.489632213868,       1.824158976475,       0.000000000000
214,      11.138876348913,       1.521395407830,       0.000000000000
215,      10.440364940375,       2.188573641102,       0.000000000000
216,      10.861378223478,       2.093578497867,       0.000000000000
217,      11.122931167906,       2.195982229830,       0.000000000000
218,      11.153173264950,       2.402772250688,       0.000000000000
219,      12.194246056236,       1.852397752198,       0.000000000000
220,      12.934327333106,       1.787347025241,       0.000000000000
221,      12.113707881559,       2.449497606130,       0.000000000000
222,      11.855664257136,       1.613372190061,       0.000000000000
223,      12.178202663466,       1.559801595618,       0.000000000000
224,      11.919811382754,       1.880717695763,       0.000000000000
225,      12.446583333721,       1.562920878223,       0.000000000000
226,      12.521356975757,       1.827600920839,       0.000000000000
227,      11.974276842520,       2.089901240615,       0.000000000000
228,      12.203420735401,       2.145727083986,       0.000000000000
229,      11.868897996881,       2.496075091298,       0.000000000000
230,      12.567277372501,       2.198267220344,       0.000000000000
231,      13.460392988013,       1.789771545060,       0.000000000000
232,      14.061012555714,       1.826177280240,       0.000000000000
233,      13.461734911810,       2.301288874220,       0.000000000000
234,      14.692079363674,       1.839507509301,       0.000000000000
235,      15.331089727678,       1.836013243053,       0.000000000000
236,      14.667732657465,       2.453508323232,       0.000000000000
237,      15.968715367175,       1.834478573118,       0.000000000000
238,      16.607279114986,       1.834172147627,       0.000000000000
239,      15.925972502335,       2.436866198506,       0.000000000000
240,      17.246396445616,       1.834136664679,       0.000000000000
241,      17.885657265360,       1.834134153281,       0.000000000000
242,      17.202349938557,       2.436298329531,       0.000000000000
243,      18.524940502081,       1.834134042657,       0.000000000000
244,      19.164226043079,       1.834134039618,       0.000000000000
245,      18.480875067167,       2.436294645939,       0.000000000000
246,      19.803511747390,       1.834134039566,       0.000000000000
247,      20.442797462692,       1.834134039566,       0.000000000000
248,      19.759446232966,       2.436294641793,       0.000000000000
249,      21.082083180801,       1.834134039566,       0.000000000000
250,      21.721368896235,       1.834134039566,       0.000000000000
251,      21.038017639894,       2.436294641792,       0.000000000000
252,      22.360654606079,       1.834134039566,       0.000000000000
253,      22.999940314733,       1.834134039566,       0.000000000000
254,      22.316589084056,       2.436294641792,       0.000000000000
255,      23.639226026861,       1.834134039566,       0.000000000000
256,      24.278511742615,       1.834134039566,       0.000000000000
257,      23.595160486771,       2.436294641792,       0.000000000000
258,      24.917797458608,       1.834134039566,       0.000000000000
259,      25.557083170134,       1.834134039566,       0.000000000000
260,      24.873731949267,       2.436294641792,       0.000000000000
261,      26.196368878769,       1.834134039566,       0.000000000000
262,      26.835654591990,       1.834134039566,       0.000000000000
263,      26.152303343310,       2.436294641792,       0.000000000000
264,      27.474940309995,       1.834134039566,       0.000000000000
265,      28.114226025619,       1.834134039566,       0.000000000000
266,      27.430874755962,       2.436294641792,       0.000000000000
267,      28.753511736508,       1.834134039566,       0.000000000000
268,      29.392797445107,       1.834134039566,       0.000000000000
269,      28.709446223237,       2.436294641791,       0.000000000000
270,      30.032083147332,       1.834134039562,       0.000000000000
271,      30.671368685672,       1.834134039341,       0.000000000000
272,      29.988017616780,       2.436294640090,       0.000000000000
273,      31.310651519299,       1.834134031382,       0.000000000000
274,      31.949906478975,       1.834133854287,       0.000000000000
275,      31.266586443450,       2.436293501499,       0.000000000000
276,      32.588987724593,       1.834131444217,       0.000000000000
277,      33.227485853237,       1.834112148140,       0.000000000000
278,      32.544970644917,       2.436154547837,       0.000000000000
279,      33.865243119591,       1.834031701626,       0.000000000000
280,      34.504281159693,       1.833961724794,       0.000000000000
281,      33.823453705573,       2.433492969878,       0.000000000000
282,      35.148919283021,       1.834862280374,       0.000000000000
283,      35.128640028089,       2.430034708871,       0.000000000000
284,       0.646776364942,       3.017159552298,       0.000000000000
285,       1.287103694814,       3.018344302772,       0.000000000000
286,       1.922402701267,       3.021618984629,       0.000000000000
287,       2.558518756894,       3.023701553278,       0.000000000000
288,       3.196878099769,       3.024345875615,       0.000000000000
289,       3.835975361846,       3.024218849182,       0.000000000000
290,       4.475250609615,       3.022608924807,       0.000000000000
291,       5.115975295167,       3.015043620218,       0.000000000000
292,       5.812930783808,       2.978063822213,       0.000000000000
293,       6.388420492499,       3.150170272115,       0.000000000000
294,       6.128797152189,       2.711720416509,       0.000000000000
295,       6.491416254183,       2.743962875322,       0.000000000000
296,       6.700617605235,       2.589916983344,       0.000000000000
297,       8.189009850533,       2.998929962963,       0.000000000000
298,       8.730273666402,       3.075015530679,       0.000000000000
299,       7.959167185018,       2.710757548926,       0.000000000000
300,       9.574303371774,       3.052803628836,       0.000000000000
301,      10.250226605832,       3.011626707279,       0.000000000000
302,       9.252962997262,       2.786026551735,       0.000000000000
303,       9.561432109506,       2.705923034855,       0.000000000000
304,       9.191931736537,       3.165562951099,       0.000000000000
305,       9.968095838711,       2.646028421356,       0.000000000000
306,       9.914789194283,       3.011055679802,       0.000000000000
307,       9.347910195952,       3.381664937146,       0.000000000000
308,       9.552022869110,       3.342295662027,       0.000000000000
309,       9.845371250194,       3.322269107462,       0.000000000000
310,      10.159904203104,       3.318829438826,       0.000000000000
311,      10.856395061417,       3.044568492835,       0.000000000000
312,      11.478860923095,       3.049248174840,       0.000000000000
313,      10.618743052952,       2.813501422683,       0.000000000000
314,      10.869031241573,       2.762102829535,       0.000000000000
315,      10.554025648964,       3.036850816820,       0.000000000000
316,      11.251054462505,       2.707492240192,       0.000000000000
317,      11.499483535638,       2.829548673024,       0.000000000000
318,      11.172684741728,       3.043996447199,       0.000000000000
319,      10.476391947422,       3.322971921182,       0.000000000000
320,      10.792778216660,       3.326738023102,       0.000000000000
321,      11.110110420099,       3.328072635612,       0.000000000000
322,      11.426478532472,       3.328512983149,       0.000000000000
323,      12.098060222181,       3.045817717310,       0.000000000000
324,      12.703417049761,       3.012023959165,       0.000000000000
325,      11.756338245031,       2.717417895476,       0.000000000000
326,      12.120998355609,       2.767588522951,       0.000000000000
327,      11.784173961411,       3.045766200642,       0.000000000000
328,      12.369745947899,       2.812247210678,       0.000000000000
329,      12.398847854950,       3.037050899866,       0.000000000000
330,      11.742629733259,       3.328311422527,       0.000000000000
331,      12.059468059370,       3.326923662636,       0.000000000000
332,      12.375584906159,       3.323008979403,       0.000000000000
333,      12.692896340602,       3.318893843519,       0.000000000000
334,      13.368146704669,       3.056311392022,       0.000000000000
335,      14.099405478968,       3.089808667573,       0.000000000000
336,      13.026336869863,       2.649657265052,       0.000000000000
337,      13.417742011911,       2.715856786061,       0.000000000000
338,      13.038961600989,       3.012447508430,       0.000000000000
339,      13.700763778101,       2.803108260192,       0.000000000000
340,      13.686141713122,       3.174155772135,       0.000000000000
341,      13.011288643834,       3.322594377303,       0.000000000000
342,      13.312144852994,       3.343288133612,       0.000000000000
343,      13.520541922013,       3.383096404621,       0.000000000000
344,      14.601089897594,       3.041028624654,       0.000000000000
345,      15.195454056194,       3.027755888731,       0.000000000000
346,      15.822879948773,       3.024972420487,       0.000000000000
347,      16.459910610319,       3.024558569090,       0.000000000000
348,      17.098866063932,       3.024517651721,       0.000000000000
349,      17.738114453577,       3.024515014138,       0.000000000000
350,      18.377397135514,       3.024514903898,       0.000000000000
351,      19.016682706949,       3.024514900926,       0.000000000000
352,      19.655968343432,       3.024514900874,       0.000000000000
353,      20.295253922356,       3.024514900874,       0.000000000000
354,      20.934539663541,       3.024514900874,       0.000000000000
355,      21.573825502791,       3.024514900874,       0.000000000000
356,      22.213111188840,       3.024514900874,       0.000000000000
357,      22.852396795153,       3.024514900874,       0.000000000000
358,      23.491682498365,       3.024514900874,       0.000000000000
359,      24.130968285534,       3.024514900874,       0.000000000000
360,      24.770254073422,       3.024514900874,       0.000000000000
361,      25.409539776422,       3.024514900874,       0.000000000000
362,      26.048825372600,       3.024514900874,       0.000000000000
363,      26.688110996864,       3.024514900874,       0.000000000000
364,      27.327396746881,       3.024514900874,       0.000000000000
365,      27.966682550340,       3.024514900874,       0.000000000000
366,      28.605968326380,       3.024514900873,       0.000000000000
367,      29.245254025215,       3.024514900839,       0.000000000000
368,      29.884539640448,       3.024514899172,       0.000000000000
369,      30.523825202893,       3.024514846458,       0.000000000000
370,      31.163109459990,       3.024513759625,       0.000000000000
371,      31.802379270249,       3.024499170704,       0.000000000000
372,      32.441564234123,       3.024373604592,       0.000000000000
373,      33.080601001098,       3.023703363700,       0.000000000000
374,      33.721226881130,       3.021619064002,       0.000000000000
375,      34.380841081007,       3.018344313632,       0.000000000000
376,      35.078009129442,       3.017159582251,       0.000000000000
377,       0.000000000000,       1.234570199551,       0.000000000000
378,       0.000000000000,       0.617285099775,       0.000000000000
379,       0.000000000000,       0.000000000000,       0.000000000000
380,       0.801604329547,       0.000000000000,       0.000000000000
381,       1.603208659095,       0.000000000000,       0.000000000000
382,       2.237500007807,       0.000000000000,       0.000000000000
383,       2.876785709326,       0.000000000000,       0.000000000000
384,       3.516071563463,       0.000000000000,       0.000000000000
385,       4.155357276647,       0.000000000000,       0.000000000000
386,       4.794642848876,       0.000000000000,       0.000000000000
387,       5.428934213942,       0.000000000000,       0.000000000000
388,       6.164467106971,       0.000000000000,       0.000000000000
389,       6.900000000000,       0.000000000000,       0.000000000000
390,       6.900000000000,       0.337353507653,       0.000000000000
391,       6.900000000000,       0.674707015307,       0.000000000000
392,       6.900000000000,       0.861328105607,       0.000000000000
393,       6.900000000000,       1.102978506562,       0.000000000000
394,       6.900000000000,       1.300000000000,       0.000000000000
395,       7.351785746833,       1.300000000000,       0.000000000000
396,       7.700000000000,       1.300000000000,       0.000000000000
397,       7.700000000000,       0.923535161770,       0.000000000000
398,       7.700000000000,       0.461767580885,       0.000000000000
399,       7.700000000000,       0.000000000000,       0.000000000000
400,       8.325000080684,       0.000000000000,       0.000000000000
401,       8.950000161368,       0.000000000000,       0.000000000000
402,       9.519363667746,       0.000000000000,       0.000000000000
403,       9.903933956428,       0.000000000000,       0.000000000000
404,      10.228571090810,       0.000000000000,       0.000000000000
405,      10.548214500515,       0.000000000000,       0.000000000000
406,      10.867856762157,       0.000000000000,       0.000000000000
407,      11.187500283454,       0.000000000000,       0.000000000000
408,      11.507142704525,       0.000000000000,       0.000000000000
409,      11.826786385251,       0.000000000000,       0.000000000000
410,      12.146428501753,       0.000000000000,       0.000000000000
411,      12.466071179556,       0.000000000000,       0.000000000000
412,      12.785714589261,       0.000000000000,       0.000000000000
413,      13.110351723643,       0.000000000000,       0.000000000000
414,      13.494921925591,       0.000000000000,       0.000000000000
415,      14.069279927653,       0.000000000000,       0.000000000000
416,      14.703570997280,       0.000000000000,       0.000000000000
417,      15.342857037158,       0.000000000000,       0.000000000000
418,      15.982142882016,       0.000000000000,       0.000000000000
419,      16.621428824384,       0.000000000000,       0.000000000000
420,      17.260714697821,       0.000000000000,       0.000000000000
421,      17.900000709120,       0.000000000000,       0.000000000000
422,      18.539285503425,       0.000000000000,       0.000000000000
423,      19.178571215124,       0.000000000000,       0.000000000000
424,      19.817857117139,       0.000000000000,       0.000000000000
425,      20.457143038207,       0.000000000000,       0.000000000000
426,      21.096429001875,       0.000000000000,       0.000000000000
427,      21.735714944243,       0.000000000000,       0.000000000000
428,      22.374999738548,       0.000000000000,       0.000000000000
429,      23.014285409895,       0.000000000000,       0.000000000000
430,      23.653572500326,       0.000000000000,       0.000000000000
431,      24.292856146567,       0.000000000000,       0.000000000000
432,      24.932143236998,       0.000000000000,       0.000000000000
433,      25.571428908345,       0.000000000000,       0.000000000000
434,      26.210713702650,       0.000000000000,       0.000000000000
435,      26.849999645018,       0.000000000000,       0.000000000000
436,      27.489286735449,       0.000000000000,       0.000000000000
437,      28.128571529754,       0.000000000000,       0.000000000000
438,      28.767856324058,       0.000000000000,       0.000000000000
439,      29.407143143469,       0.000000000000,       0.000000000000
440,      30.046427937773,       0.000000000000,       0.000000000000
441,      30.685714151162,       0.000000000000,       0.000000000000
442,      31.324999822509,       0.000000000000,       0.000000000000
443,      31.964285764877,       0.000000000000,       0.000000000000
444,      32.603570559181,       0.000000000000,       0.000000000000
445,      33.242857649613,       0.000000000000,       0.000000000000
446,      33.882142443917,       0.000000000000,       0.000000000000
447,      34.511438640805,       0.000000000000,       0.000000000000
448,      35.155719320402,       0.000000000000,       0.000000000000
449,      35.800000000000,       0.000000000000,       0.000000000000
450,      35.800000000000,       0.617285168974,       0.000000000000
451,      35.800000000000,       1.234570337947,       0.000000000000
452,      35.800000000000,       1.837500020254,       0.000000000000
453,      35.800000000000,       2.440429806236,       0.000000000000
454,      35.800000000000,       3.020214903118,       0.000000000000
455,      35.800000000000,       3.600000000000,       0.000000000000
456,      34.998395510147,       3.600000000000,       0.000000000000
457,      34.196791020295,       3.600000000000,       0.000000000000
458,      33.562500046765,       3.600000000000,       0.000000000000
459,      32.923214596546,       3.600000000000,       0.000000000000
460,      32.283928654178,       3.600000000000,       0.000000000000
461,      31.644642793693,       3.600000000000,       0.000000000000
462,      31.005356986835,       3.600000000000,       0.000000000000
463,      30.366071044468,       3.600000000000,       0.000000000000
464,      29.726785540621,       3.600000000000,       0.000000000000
465,      29.087500254490,       3.600000000000,       0.000000000000
466,      28.448214447633,       3.600000000000,       0.000000000000
467,      27.808928602348,       3.600000000000,       0.000000000000
468,      27.169642659981,       3.600000000000,       0.000000000000
469,      26.530356673834,       3.600000000000,       0.000000000000
470,      25.891071305498,       3.600000000000,       0.000000000000
471,      25.251786072672,       3.600000000000,       0.000000000000
472,      24.612500245851,       3.600000000000,       0.000000000000
473,      23.973214318684,       3.600000000000,       0.000000000000
474,      23.333928396279,       3.600000000000,       0.000000000000
475,      22.694642574221,       3.600000000000,       0.000000000000
476,      22.055357341395,       3.600000000000,       0.000000000000
477,      21.416071973059,       3.600000000000,       0.000000000000
478,      20.776785456660,       3.600000000000,       0.000000000000
479,      20.137499514292,       3.600000000000,       0.000000000000
480,      19.498214719987,       3.600000000000,       0.000000000000
481,      18.858928913130,       3.600000000000,       0.000000000000
482,      18.219643106272,       3.600000000000,       0.000000000000
483,      17.580357163904,       3.600000000000,       0.000000000000
484,      16.941071221536,       3.600000000000,       0.000000000000
485,      16.301785853200,       3.600000000000,       0.000000000000
486,      15.662500484864,       3.600000000000,       0.000000000000
487,      15.025711978866,       3.600000000000,       0.000000000000
488,      14.423883731328,       3.600000000000,       0.000000000000
489,      13.976882889934,       3.600000000000,       0.000000000000
490,      13.747140094130,       3.600000000000,       0.000000000000
491,      13.549860255927,       3.600000000000,       0.000000000000
492,      13.262680816375,       3.600000000000,       0.000000000000
493,      12.945535855592,       3.600000000000,       0.000000000000
494,      12.625892884408,       3.600000000000,       0.000000000000
495,      12.306249339193,       3.600000000000,       0.000000000000
496,      11.986606942041,       3.600000000000,       0.000000000000
497,      11.666964544888,       3.600000000000,       0.000000000000
498,      11.347320999673,       3.600000000000,       0.000000000000
499,      11.027678028489,       3.600000000000,       0.000000000000
500,      10.708035631336,       3.600000000000,       0.000000000000
501,      10.388392795663,       3.600000000000,       0.000000000000
502,      10.068749824479,       3.600000000000,       0.000000000000
503,       9.751604154155,       3.600000000000,       0.000000000000
504,       9.464425153124,       3.600000000000,       0.000000000000
505,       9.267145753441,       3.600000000000,       0.000000000000
506,       9.039899245944,       3.600000000000,       0.000000000000
507,       8.630356673412,       3.600000000000,       0.000000000000
508,       8.165178336706,       3.600000000000,       0.000000000000
509,       7.700000000000,       3.600000000000,       0.000000000000
510,       7.700000000000,       3.175732433415,       0.000000000000
511,       7.700000000000,       2.751464866830,       0.000000000000
512,       7.700000000000,       2.300000000000,       0.000000000000
513,       7.351785714978,       2.300000000000,       0.000000000000
514,       6.900000000000,       2.300000000000,       0.000000000000
515,       6.900000000000,       2.694042982968,       0.000000000000
516,       6.900000000000,       2.813671869880,       0.000000000000
517,       6.900000000000,       3.206835934940,       0.000000000000
518,       6.900000000000,       3.600000000000,       0.000000000000
519,       6.321791237592,       3.600000000000,       0.000000000000
520,       5.743582475185,       3.600000000000,       0.000000000000
521,       5.114285705468,       3.600000000000,       0.000000000000
522,       4.474999992284,       3.600000000000,       0.000000000000
523,       3.835714285348,       3.600000000000,       0.000000000000
524,       3.196428565917,       3.600000000000,       0.000000000000
525,       2.557142852734,       3.600000000000,       0.000000000000
526,       1.917857421459,       3.600000000000,       0.000000000000
527,       1.288560404510,       3.600000000000,       0.000000000000
528,       0.644280202255,       3.600000000000,       0.000000000000
529,       0.000000000000,       3.600000000000,       0.000000000000
530,       0.000000000000,       3.020214834479,       0.000000000000
531,       0.000000000000,       2.440429668957,       0.000000000000
532,       0.000000000000,       1.837500020254,       0.000000000000
533,      11.500000000000,       1.570000000000,       0.000000000000
534,      11.552785943821,       1.678588227289,       0.000000000000
535,      11.667641215090,       1.914861928185,       0.000000000000
536,      11.850000000000,       2.290000000000,       0.000000000000
537,      11.792406255444,       2.318796872278,       0.000000000000
538,      11.490000000000,       2.470000000000,       0.000000000000
539,      11.424316986090,       2.334880657099,       0.000000000000
540,      11.315949924201,       2.111954129784,       0.000000000000
541,      11.140000000000,       1.750000000000,       0.000000000000
542,      11.250929687991,       1.694535156004,       0.000000000000
543,      10.010416045661,       2.233923418072,       0.000000000000
544,      12.997903765115,       2.238209692141,       0.000000000000
545,       6.449600641870,       0.887095364800,       0.000000000000
*ELEMENT, type=CPS4, ELSET=Surface1
1, 52, 53, 1, 54
2, 53, 55, 57, 1
3, 55, 56, 2, 57
4, 56, 58, 60, 2
5, 58, 59, 3, 60
6, 59, 61, 63, 3
7, 61, 62, 4, 63
8, 62, 64, 65, 4
9, 64, 545, 67, 65
10, 545, 66, 5, 67
11, 66, 68, 69, 5
12, 70, 71, 6, 72
13, 73, 70, 72, 74
14, 71, 75, 77, 6
15, 75, 76, 7, 77
16, 78, 79, 76, 75
17, 79, 83, 85, 76
18, 83, 84, 80, 85
19, 84, 86, 88, 80
20, 86, 87, 81, 88
21, 76, 85, 89, 7
22, 85, 80, 90, 89
23, 89, 90, 82, 7
24, 80, 88, 91, 90
25, 88, 81, 92, 91
26, 90, 91, 93, 82
27, 91, 92, 8, 93
28, 87, 97, 99, 81
29, 97, 98, 94, 99
30, 98, 100, 102, 94
31, 100, 101, 95, 102
32, 81, 99, 103, 92
33, 99, 94, 104, 103
34, 92, 103, 105, 8
35, 103, 104, 96, 105
36, 94, 102, 106, 104
37, 102, 95, 9, 106
38, 104, 106, 9, 96
39, 95, 107, 109, 9
40, 107, 108, 10, 109
41, 101, 110, 107, 95
42, 108, 111, 113, 10
43, 111, 112, 11, 113
44, 112, 114, 116, 11
45, 114, 115, 12, 116
46, 115, 117, 119, 12
47, 117, 118, 13, 119
48, 118, 120, 122, 13
49, 120, 121, 14, 122
50, 121, 123, 125, 14
51, 123, 124, 15, 125
52, 124, 126, 128, 15
53, 126, 127, 16, 128
54, 127, 129, 131, 16
55, 129, 130, 17, 131
56, 130, 132, 134, 17
57, 132, 133, 18, 134
58, 133, 135, 137, 18
59, 135, 136, 19, 137
60, 136, 138, 140, 19
61, 138, 139, 20, 140
62, 139, 141, 143, 20
63, 141, 142, 21, 143
64, 142, 144, 146, 21
65, 144, 145, 22, 146
66, 145, 147, 149, 22
67, 147, 148, 23, 149
68, 148, 150, 152, 23
69, 150, 151, 24, 152
70, 151, 153, 155, 24
71, 153, 154, 25, 155
72, 154, 156, 158, 25
73, 156, 157, 26, 158
74, 157, 159, 160, 26
75, 54, 1, 162, 161
76, 161, 162, 27, 163
77, 1, 57, 164, 162
78, 57, 2, 165, 164
79, 162, 164, 166, 27
80, 164, 165, 28, 166
81, 2, 60, 167, 165
82, 60, 3, 168, 167
83, 165, 167, 169, 28
84, 167, 168, 29, 169
85, 3, 63, 170, 168
86, 63, 4, 171, 170
87, 168, 170, 172, 29
88, 170, 171, 30, 172
89, 4, 65, 173, 171
90, 171, 173, 175, 30
91, 65, 67, 176, 173
92, 67, 5, 177, 176
93, 176, 177, 174, 173
94, 173, 174, 179, 178
95, 173, 178, 180, 175
96, 178, 179, 31, 180
97, 5, 69, 183, 177
98, 177, 183, 185, 174
99, 183, 184, 181, 185
100, 184, 186, 188, 181
101, 186, 187, 182, 188
102, 174, 185, 189, 179
103, 185, 181, 190, 189
104, 179, 189, 191, 31
105, 181, 188, 192, 190
106, 188, 182, 193, 192
107, 74, 72, 198, 197
108, 187, 197, 199, 182
109, 197, 198, 194, 199
110, 72, 6, 200, 198
111, 198, 200, 201, 194
112, 200, 6, 195, 201
113, 182, 199, 202, 193
114, 199, 194, 203, 202
115, 202, 203, 196, 204
116, 194, 201, 205, 203
117, 201, 195, 32, 205
118, 203, 205, 32, 196
119, 6, 77, 206, 195
120, 77, 7, 207, 206
121, 195, 206, 208, 32
122, 206, 207, 543, 208
123, 7, 82, 212, 211
124, 7, 211, 213, 207
125, 211, 212, 209, 213
126, 82, 93, 214, 212
127, 207, 213, 215, 543
128, 213, 209, 216, 215
129, 215, 216, 210, 33
130, 216, 217, 218, 210
131, 105, 96, 223, 222
132, 222, 223, 219, 224
133, 96, 9, 225, 223
134, 223, 225, 226, 219
135, 225, 9, 220, 226
136, 224, 219, 228, 227
137, 219, 226, 230, 228
138, 226, 220, 544, 230
139, 228, 230, 34, 221
140, 9, 109, 231, 220
141, 109, 10, 232, 231
142, 220, 231, 233, 544
143, 231, 232, 35, 233
144, 10, 113, 234, 232
145, 113, 11, 235, 234
146, 232, 234, 236, 35
147, 234, 235, 36, 236
148, 11, 116, 237, 235
149, 116, 12, 238, 237
150, 235, 237, 239, 36
151, 237, 238, 37, 239
152, 12, 119, 240, 238
153, 119, 13, 241, 240
154, 238, 240, 242, 37
155, 240, 241, 38, 242
156, 13, 122, 243, 241
157, 122, 14, 244, 243
158, 241, 243, 245, 38
159, 243, 244, 39, 245
160, 14, 125, 246, 244
161, 125, 15, 247, 246
162, 244, 246, 248, 39
163, 246, 247, 40, 248
164, 15, 128, 249, 247
165, 128, 16, 250, 249
166, 247, 249, 251, 40
167, 249, 250, 41, 251
168, 16, 131, 252, 250
169, 131, 17, 253, 252
170, 250, 252, 254, 41
171, 252, 253, 42, 254
172, 17, 134, 255, 253
173, 134, 18, 256, 255
174, 253, 255, 257, 42
175, 255, 256, 43, 257
176, 18, 137, 258, 256
177, 137, 19, 259, 258
178, 256, 258, 260, 43
179, 258, 259, 44, 260
180, 19, 140, 261, 259
181, 140, 20, 262, 261
182, 259, 261, 263, 44
183, 261, 262, 45, 263
184, 20, 143, 264, 262
185, 143, 21, 265, 264
186, 262, 264, 266, 45
187, 264, 265, 46, 266
188, 21, 146, 267, 265
189, 146, 22, 268, 267
190, 265, 267, 269, 46
191, 267, 268, 47, 269
192, 22, 149, 270, 268
193, 149, 23, 271, 270
194, 268, 270, 272, 47
195, 270, 271, 48, 272
196, 23, 152, 273, 271
197, 152, 24, 274, 273
198, 271, 273, 275, 48
199, 273, 274, 49, 275
200, 24, 155, 276, 274
201, 155, 25, 277, 276
202, 274, 276, 278, 49
203, 276, 277, 50, 278
204, 25, 158, 279, 277
205, 158, 26, 280, 279
206, 277, 279, 281, 50
207, 279, 280, 51, 281
208, 26, 160, 282, 280
209, 280, 282, 283, 51
210, 163, 27, 285, 284
211, 27, 166, 286, 285
212, 166, 28, 287, 286
213, 28, 169, 288, 287
214, 169, 29, 289, 288
215, 29, 172, 290, 289
216, 172, 30, 291, 290
217, 30, 175, 292, 291
218, 175, 180, 294, 292
219, 180, 31, 295, 294
220, 294, 295, 293, 292
221, 31, 191, 296, 295
222, 196, 32, 298, 297
223, 204, 196, 297, 299
224, 32, 208, 303, 302
225, 32, 302, 304, 298
226, 302, 303, 300, 304
227, 208, 543, 305, 303
228, 303, 305, 306, 300
229, 305, 33, 301, 306
230, 304, 300, 308, 307
231, 300, 306, 309, 308
232, 306, 301, 310, 309
233, 33, 210, 314, 313
234, 33, 313, 315, 301
235, 313, 314, 311, 315
236, 210, 218, 316, 314
237, 314, 316, 318, 311
238, 316, 317, 312, 318
239, 301, 315, 319, 310
240, 315, 311, 320, 319
241, 311, 318, 321, 320
242, 318, 312, 322, 321
243, 229, 221, 326, 325
244, 317, 325, 327, 312
245, 325, 326, 323, 327
246, 221, 34, 328, 326
247, 326, 328, 329, 323
248, 328, 34, 324, 329
249, 312, 327, 330, 322
250, 327, 323, 331, 330
251, 323, 329, 332, 331
252, 329, 324, 333, 332
253, 544, 233, 337, 336
254, 34, 336, 338, 324
255, 336, 337, 334, 338
256, 233, 35, 339, 337
257, 337, 339, 340, 334
258, 339, 35, 335, 340
259, 324, 338, 341, 333
260, 338, 334, 342, 341
261, 334, 340, 343, 342
262, 35, 236, 344, 335
263, 236, 36, 345, 344
264, 36, 239, 346, 345
265, 239, 37, 347, 346
266, 37, 242, 348, 347
267, 242, 38, 349, 348
268, 38, 245, 350, 349
269, 245, 39, 351, 350
270, 39, 248, 352, 351
271, 248, 40, 353, 352
272, 40, 251, 354, 353
273, 251, 41, 355, 354
274, 41, 254, 356, 355
275, 254, 42, 357, 356
276, 42, 257, 358, 357
277, 257, 43, 359, 358
278, 43, 260, 360, 359
279, 260, 44, 361, 360
280, 44, 263, 362, 361
281, 263, 45, 363, 362
282, 45, 266, 364, 363
283, 266, 46, 365, 364
284, 46, 269, 366, 365
285, 269, 47, 367, 366
286, 47, 272, 368, 367
287, 272, 48, 369, 368
288, 48, 275, 370, 369
289, 275, 49, 371, 370
290, 49, 278, 372, 371
291, 278, 50, 373, 372
292, 50, 281, 374, 373
293, 281, 51, 375, 374
294, 51, 283, 376, 375
295, 54, 377, 378, 52
296, 52, 378, 379, 380
297, 52, 380, 381, 53
298, 53, 381, 382, 55
299, 55, 382, 383, 56
300, 56, 383, 384, 58
301, 58, 384, 385, 59
302, 59, 385, 386, 61
303, 61, 386, 387, 62
304, 62, 387, 388, 64
305, 64, 388, 389, 390
306, 64, 390, 391, 545
307, 545, 391, 392, 66
308, 66, 392, 393, 68
309, 68, 393, 394, 69
310, 69, 394, 184, 183
311, 184, 394, 395, 186
312, 186, 395, 396, 187
313, 187, 396, 74, 197
314, 74, 396, 397, 73
315, 73, 397, 398, 70
316, 70, 398, 399, 400
317, 70, 400, 401, 71
318, 71, 401, 402, 75
319, 75, 402, 403, 78
320, 78, 403, 404, 79
321, 79, 404, 405, 83
322, 83, 405, 406, 84
323, 84, 406, 407, 86
324, 86, 407, 408, 87
325, 87, 408, 409, 97
326, 97, 409, 410, 98
327, 98, 410, 411, 100
328, 100, 411, 412, 101
329, 101, 412, 413, 110
330, 110, 413, 414, 107
331, 107, 414, 415, 108
332, 108, 415, 416, 111
333, 111, 416, 417, 112
334, 112, 417, 418, 114
335, 114, 418, 419, 115
336, 115, 419, 420, 117
337, 117, 420, 421, 118
338, 118, 421, 422, 120
339, 120, 422, 423, 121
340, 121, 423, 424, 123
341, 123, 424, 425, 124
342, 124, 425, 426, 126
343, 126, 426, 427, 127
344, 127, 427, 428, 129
345, 129, 428, 429, 130
346, 130, 429, 430, 132
347, 132, 430, 431, 133
348, 133, 431, 432, 135
349, 135, 432, 433, 136
350, 136, 433, 434, 138
351, 138, 434, 435, 139
352, 139, 435, 436, 141
353, 141, 436, 437, 142
354, 142, 437, 438, 144
355, 144, 438, 439, 145
356, 145, 439, 440, 147
357, 147, 440, 441, 148
358, 148, 441, 442, 150
359, 150, 442, 443, 151
360, 151, 443, 444, 153
361, 153, 444, 445, 154
362, 154, 445, 446, 156
363, 156, 446, 447, 157
364, 157, 447, 448, 159
365, 159, 448, 449, 450
366, 159, 450, 451, 160
367, 160, 451, 452, 282
368, 282, 452, 453, 283
369, 283, 453, 454, 376
370, 376, 454, 455, 456
371, 376, 456, 457, 375
372, 375, 457, 458, 374
373, 374, 458, 459, 373
374, 373, 459, 460, 372
375, 372, 460, 461, 371
376, 371, 461, 462, 370
377, 370, 462, 463, 369
378, 369, 463, 464, 368
379, 368, 464, 465, 367
380, 367, 465, 466, 366
381, 366, 466, 467, 365
382, 365, 467, 468, 364
383, 364, 468, 469, 363
384, 363, 469, 470, 362
385, 362, 470, 471, 361
386, 361, 471, 472, 360
387, 360, 472, 473, 359
388, 359, 473, 474, 358
389, 358, 474, 475, 357
390, 357, 475, 476, 356
391, 356, 476, 477, 355
392, 355, 477, 478, 354
393, 354, 478, 479, 353
394, 353, 479, 480, 352
395, 352, 480, 481, 351
396, 351, 481, 482, 350
397, 350, 482, 483, 349
398, 349, 483, 484, 348
399, 348, 484, 485, 347
400, 347, 485, 486, 346
401, 346, 486, 487, 345
402, 345, 487, 488, 344
403, 344, 488, 489, 335
404, 335, 489, 490, 340
405, 340, 490, 491, 343
406, 343, 491, 492, 342
407, 342, 492, 493, 341
408, 341, 493, 494, 333
409, 333, 494, 495, 332
410, 332, 495, 496, 331
411, 331, 496, 497, 330
412, 330, 497, 498, 322
413, 322, 498, 499, 321
414, 321, 499, 500, 320
415, 320, 500, 501, 319
416, 319, 501, 502, 310
417, 310, 502, 503, 309
418, 309, 503, 504, 308
419, 308, 504, 505, 307
420, 307, 505, 506, 304
421, 304, 506, 507, 298
422, 298, 507, 508, 297
423, 297, 508, 509, 510
424, 297, 510, 511, 299
425, 299, 511, 512, 204
426, 204, 512, 193, 202
427, 193, 512, 513, 192
428, 192, 513, 514, 190
429, 190, 514, 191, 189
430, 191, 514, 515, 296
431, 296, 515, 516, 295
432, 295, 516, 517, 293
433, 293, 517, 518, 519
434, 293, 519, 520, 292
435, 292, 520, 521, 291
436, 291, 521, 522, 290
437, 290, 522, 523, 289
438, 289, 523, 524, 288
439, 288, 524, 525, 287
440, 287, 525, 526, 286
441, 286, 526, 527, 285
442, 285, 527, 528, 284
443, 284, 528, 529, 530
444, 284, 530, 531, 163
445, 163, 531, 532, 161
446, 161, 532, 377, 54
447, 93, 8, 105, 533
448, 105, 222, 534, 533
449, 222, 224, 535, 534
450, 224, 227, 536, 535
451, 227, 228, 221, 536
452, 221, 229, 537, 536
453, 229, 325, 538, 537
454, 325, 317, 316, 538
455, 316, 218, 539, 538
456, 218, 217, 540, 539
457, 217, 216, 541, 540
458, 216, 209, 212, 541
459, 212, 214, 542, 541
460, 214, 93, 533, 542
461, 33, 305, 543, 215
462, 34, 230, 544, 336
** ***** HOHQMesh boundary information ***** **
** mesh polynomial degree = 1
**  52 53 1 54
**  0 0 0 0
**  53 55 57 1
**  0 0 0 0
**  55 56 2 57
**  0 0 0 0
**  56 58 60 2
**  0 0 0 0
**  58 59 3 60
**  0 0 0 0
**  59 61 63 3
**  0 0 0 0
**  61 62 4 63
**  0 0 0 0
**  62 64 65 4
**  0 0 0 0
**  64 545 67 65
**  0 0 0 0
**  545 66 5 67
**  0 0 0 0
**  66 68 69 5
**  0 0 0 0
**  70 71 6 72
**  0 0 0 0
**  73 70 72 74
**  0 0 0 0
**  71 75 77 6
**  0 0 0 0
**  75 76 7 77
**  0 0 0 0
**  78 79 76 75
**  0 0 0 0
**  79 83 85 76
**  0 0 0 0
**  83 84 80 85
**  0 0 0 0
**  84 86 88 80
**  0 0 0 0
**  86 87 81 88
**  0 0 0 0
**  76 85 89 7
**  0 0 0 0
**  85 80 90 89
**  0 0 0 0
**  89 90 82 7
**  0 0 0 0
**  80 88 91 90
**  0 0 0 0
**  88 81 92 91
**  0 0 0 0
**  90 91 93 82
**  0 0 0 0
**  91 92 8 93
**  0 0 0 0
**  87 97 99 81
**  0 0 0 0
**  97 98 94 99
**  0 0 0 0
**  98 100 102 94
**  0 0 0 0
**  100 101 95 102
**  0 0 0 0
**  81 99 103 92
**  0 0 0 0
**  99 94 104 103
**  0 0 0 0
**  92 103 105 8
**  0 0 0 0
**  103 104 96 105
**  0 0 0 0
**  94 102 106 104
**  0 0 0 0
**  102 95 9 106
**  0 0 0 0
**  104 106 9 96
**  0 0 0 0
**  95 107 109 9
**  0 0 0 0
**  107 108 10 109
**  0 0 0 0
**  101 110 107 95
**  0 0 0 0
**  108 111 113 10
**  0 0 0 0
**  111 112 11 113
**  0 0 0 0
**  112 114 116 11
**  0 0 0 0
**  114 115 12 116
**  0 0 0 0
**  115 117 119 12
**  0 0 0 0
**  117 118 13 119
**  0 0 0 0
**  118 120 122 13
**  0 0 0 0
**  120 121 14 122
**  0 0 0 0
**  121 123 125 14
**  0 0 0 0
**  123 124 15 125
**  0 0 0 0
**  124 126 128 15
**  0 0 0 0
**  126 127 16 128
**  0 0 0 0
**  127 129 131 16
**  0 0 0 0
**  129 130 17 131
**  0 0 0 0
**  130 132 134 17
**  0 0 0 0
**  132 133 18 134
**  0 0 0 0
**  133 135 137 18
**  0 0 0 0
**  135 136 19 137
**  0 0 0 0
**  136 138 140 19
**  0 0 0 0
**  138 139 20 140
**  0 0 0 0
**  139 141 143 20
**  0 0 0 0
**  141 142 21 143
**  0 0 0 0
**  142 144 146 21
**  0 0 0 0
**  144 145 22 146
**  0 0 0 0
**  145 147 149 22
**  0 0 0 0
**  147 148 23 149
**  0 0 0 0
**  148 150 152 23
**  0 0 0 0
**  150 151 24 152
**  0 0 0 0
**  151 153 155 24
**  0 0 0 0
**  153 154 25 155
**  0 0 0 0
**  154 156 158 25
**  0 0 0 0
**  156 157 26 158
**  0 0 0 0
**  157 159 160 26
**  0 0 0 0
**  54 1 162 161
**  0 0 0 0
**  161 162 27 163
**  0 0 0 0
**  1 57 164 162
**  0 0 0 0
**  57 2 165 164
**  0 0 0 0
**  162 164 166 27
**  0 0 0 0
**  164 165 28 166
**  0 0 0 0
**  2 60 167 165
**  0 0 0 0
**  60 3 168 167
**  0 0 0 0
**  165 167 169 28
**  0 0 0 0
**  167 168 29 169
**  0 0 0 0
**  3 63 170 168
**  0 0 0 0
**  63 4 171 170
**  0 0 0 0
**  168 170 172 29
**  0 0 0 0
**  170 171 30 172
**  0 0 0 0
**  4 65 173 171
**  0 0 0 0
**  171 173 175 30
**  0 0 0 0
**  65 67 176 173
**  0 0 0 0
**  67 5 177 176
**  0 0 0 0
**  176 177 174 173
**  0 0 0 0
**  173 174 179 178
**  0 0 0 0
**  173 178 180 175
**  0 0 0 0
**  178 179 31 180
**  0 0 0 0
**  5 69 183 177
**  0 0 0 0
**  177 183 185 174
**  0 0 0 0
**  183 184 181 185
**  0 0 0 0
**  184 186 188 181
**  0 0 0 0
**  186 187 182 188
**  0 0 0 0
**  174 185 189 179
**  0 0 0 0
**  185 181 190 189
**  0 0 0 0
**  179 189 191 31
**  0 0 0 0
**  181 188 192 190
**  0 0 0 0
**  188 182 193 192
**  0 0 0 0
**  74 72 198 197
**  0 0 0 0
**  187 197 199 182
**  0 0 0 0
**  197 198 194 199
**  0 0 0 0
**  72 6 200 198
**  0 0 0 0
**  198 200 201 194
**  0 0 0 0
**  200 6 195 201
**  0 0 0 0
**  182 199 202 193
**  0 0 0 0
**  199 194 203 202
**  0 0 0 0
**  202 203 196 204
**  0 0 0 0
**  194 201 205 203
**  0 0 0 0
**  201 195 32 205
**  0 0 0 0
**  203 205 32 196
**  0 0 0 0
**  6 77 206 195
**  0 0 0 0
**  77 7 207 206
**  0 0 0 0
**  195 206 208 32
**  0 0 0 0
**  206 207 543 208
**  0 0 0 0
**  7 82 212 211
**  0 0 0 0
**  7 211 213 207
**  0 0 0 0
**  211 212 209 213
**  0 0 0 0
**  82 93 214 212
**  0 0 0 0
**  207 213 215 543
**  0 0 0 0
**  213 209 216 215
**  0 0 0 0
**  215 216 210 33
**  0 0 0 0
**  216 217 218 210
**  0 0 0 0
**  105 96 223 222
**  0 0 0 0
**  222 223 219 224
**  0 0 0 0
**  96 9 225 223
**  0 0 0 0
**  223 225 226 219
**  0 0 0 0
**  225 9 220 226
**  0 0 0 0
**  224 219 228 227
**  0 0 0 0
**  219 226 230 228
**  0 0 0 0
**  226 220 544 230
**  0 0 0 0
**  228 230 34 221
**  0 0 0 0
**  9 109 231 220
**  0 0 0 0
**  109 10 232 231
**  0 0 0 0
**  220 231 233 544
**  0 0 0 0
**  231 232 35 233
**  0 0 0 0
**  10 113 234 232
**  0 0 0 0
**  113 11 235 234
**  0 0 0 0
**  232 234 236 35
**  0 0 0 0
**  234 235 36 236
**  0 0 0 0
**  11 116 237 235
**  0 0 0 0
**  116 12 238 237
**  0 0 0 0
**  235 237 239 36
**  0 0 0 0
**  237 238 37 239
**  0 0 0 0
**  12 119 240 238
**  0 0 0 0
**  119 13 241 240
**  0 0 0 0
**  238 240 242 37
**  0 0 0 0
**  240 241 38 242
**  0 0 0 0
**  13 122 243 241
**  0 0 0 0
**  122 14 244 243
**  0 0 0 0
**  241 243 245 38
**  0 0 0 0
**  243 244 39 245
**  0 0 0 0
**  14 125 246 244
**  0 0 0 0
**  125 15 247 246
**  0 0 0 0
**  244 246 248 39
**  0 0 0 0
**  246 247 40 248
**  0 0 0 0
**  15 128 249 247
**  0 0 0 0
**  128 16 250 249
**  0 0 0 0
**  247 249 251 40
**  0 0 0 0
**  249 250 41 251
**  0 0 0 0
**  16 131 252 250
**  0 0 0 0
**  131 17 253 252
**  0 0 0 0
**  250 252 254 41
**  0 0 0 0
**  252 253 42 254
**  0 0 0 0
**  17 134 255 253
**  0 0 0 0
**  134 18 256 255
**  0 0 0 0
**  253 255 257 42
**  0 0 0 0
**  255 256 43 257
**  0 0 0 0
**  18 137 258 256
**  0 0 0 0
**  137 19 259 258
**  0 0 0 0
**  256 258 260 43
**  0 0 0 0
**  258 259 44 260
**  0 0 0 0
**  19 140 261 259
**  0 0 0 0
**  140 20 262 261
**  0 0 0 0
**  259 261 263 44
**  0 0 0 0
**  261 262 45 263
**  0 0 0 0
**  20 143 264 262
**  0 0 0 0
**  143 21 265 264
**  0 0 0 0
**  262 264 266 45
**  0 0 0 0
**  264 265 46 266
**  0 0 0 0
**  21 146 267 265
**  0 0 0 0
**  146 22 268 267
**  0 0 0 0
**  265 267 269 46
**  0 0 0 0
**  267 268 47 269
**  0 0 0 0
**  22 149 270 268
**  0 0 0 0
**  149 23 271 270
**  0 0 0 0
**  268 270 272 47
**  0 0 0 0
**  270 271 48 272
**  0 0 0 0
**  23 152 273 271
**  0 0 0 0
**  152 24 274 273
**  0 0 0 0
**  271 273 275 48
**  0 0 0 0
**  273 274 49 275
**  0 0 0 0
**  24 155 276 274
**  0 0 0 0
**  155 25 277 276
**  0 0 0 0
**  274 276 278 49
**  0 0 0 0
**  276 277 50 278
**  0 0 0 0
**  25 158 279 277
**  0 0 0 0
**  158 26 280 279
**  0 0 0 0
**  277 279 281 50
**  0 0 0 0
**  279 280 51 281
**  0 0 0 0
**  26 160 282 280
**  0 0 0 0
**  280 282 283 51
**  0 0 0 0
**  163 27 285 284
**  0 0 0 0
**  27 166 286 285
**  0 0 0 0
**  166 28 287 286
**  0 0 0 0
**  28 169 288 287
**  0 0 0 0
**  169 29 289 288
**  0 0 0 0
**  29 172 290 289
**  0 0 0 0
**  172 30 291 290
**  0 0 0 0
**  30 175 292 291
**  0 0 0 0
**  175 180 294 292
**  0 0 0 0
**  180 31 295 294
**  0 0 0 0
**  294 295 293 292
**  0 0 0 0
**  31 191 296 295
**  0 0 0 0
**  196 32 298 297
**  0 0 0 0
**  204 196 297 299
**  0 0 0 0
**  32 208 303 302
**  0 0 0 0
**  32 302 304 298
**  0 0 0 0
**  302 303 300 304
**  0 0 0 0
**  208 543 305 303
**  0 0 0 0
**  303 305 306 300
**  0 0 0 0
**  305 33 301 306
**  0 0 0 0
**  304 300 308 307
**  0 0 0 0
**  300 306 309 308
**  0 0 0 0
**  306 301 310 309
**  0 0 0 0
**  33 210 314 313
**  0 0 0 0
**  33 313 315 301
**  0 0 0 0
**  313 314 311 315
**  0 0 0 0
**  210 218 316 314
**  0 0 0 0
**  314 316 318 311
**  0 0 0 0
**  316 317 312 318
**  0 0 0 0
**  301 315 319 310
**  0 0 0 0
**  315 311 320 319
**  0 0 0 0
**  311 318 321 320
**  0 0 0 0
**  318 312 322 321
**  0 0 0 0
**  229 221 326 325
**  0 0 0 0
**  317 325 327 312
**  0 0 0 0
**  325 326 323 327
**  0 0 0 0
**  221 34 328 326
**  0 0 0 0
**  326 328 329 323
**  0 0 0 0
**  328 34 324 329
**  0 0 0 0
**  312 327 330 322
**  0 0 0 0
**  327 323 331 330
**  0 0 0 0
**  323 329 332 331
**  0 0 0 0
**  329 324 333 332
**  0 0 0 0
**  544 233 337 336
**  0 0 0 0
**  34 336 338 324
**  0 0 0 0
**  336 337 334 338
**  0 0 0 0
**  233 35 339 337
**  0 0 0 0
**  337 339 340 334
**  0 0 0 0
**  339 35 335 340
**  0 0 0 0
**  324 338 341 333
**  0 0 0 0
**  338 334 342 341
**  0 0 0 0
**  334 340 343 342
**  0 0 0 0
**  35 236 344 335
**  0 0 0 0
**  236 36 345 344
**  0 0 0 0
**  36 239 346 345
**  0 0 0 0
**  239 37 347 346
**  0 0 0 0
**  37 242 348 347
**  0 0 0 0
**  242 38 349 348
**  0 0 0 0
**  38 245 350 349
**  0 0 0 0
**  245 39 351 350
**  0 0 0 0
**  39 248 352 351
**  0 0 0 0
**  248 40 353 352
**  0 0 0 0
**  40 251 354 353
**  0 0 0 0
**  251 41 355 354
**  0 0 0 0
**  41 254 356 355
**  0 0 0 0
**  254 42 357 356
**  0 0 0 0
**  42 257 358 357
**  0 0 0 0
**  257 43 359 358
**  0 0 0 0
**  43 260 360 359
**  0 0 0 0
**  260 44 361 360
**  0 0 0 0
**  44 263 362 361
**  0 0 0 0
**  263 45 363 362
**  0 0 0 0
**  45 266 364 363
**  0 0 0 0
**  266 46 365 364
**  0 0 0 0
**  46 269 366 365
**  0 0 0 0
**  269 47 367 366
**  0 0 0 0
**  47 272 368 367
**  0 0 0 0
**  272 48 369 368
**  0 0 0 0
**  48 275 370 369
**  0 0 0 0
**  275 49 371 370
**  0 0 0 0
**  49 278 372 371
**  0 0 0 0
**  278 50 373 372
**  0 0 0 0
**  50 281 374 373
**  0 0 0 0
**  281 51 375 374
**  0 0 0 0
**  51 283 376 375
**  0 0 0 0
**  54 377 378 52
**  0 1 0 0
**       0.000000000000      1.234570199551      0.000000000000
**       0.000000000000      0.617285099775      0.000000000000
**  52 378 379 380
**  0 1 1 0
**       0.000000000000      0.617285099775      0.000000000000
**       0.000000000000      0.000000000000      0.000000000000
**       0.801604329547      0.000000000000      0.000000000000
**       0.000000000000      0.000000000000      0.000000000000
**  52 380 381 53
**  0 1 0 0
**       0.801604329547      0.000000000000      0.000000000000
**       1.603208659095      0.000000000000      0.000000000000
**  53 381 382 55
**  0 1 0 0
**       1.603208659095      0.000000000000      0.000000000000
**       2.237500007807      0.000000000000      0.000000000000
**  55 382 383 56
**  0 1 0 0
**       2.237500007807      0.000000000000      0.000000000000
**       2.876785709326      0.000000000000      0.000000000000
**  56 383 384 58
**  0 1 0 0
**       2.876785709326      0.000000000000      0.000000000000
**       3.516071563463      0.000000000000      0.000000000000
**  58 384 385 59
**  0 1 0 0
**       3.516071563463      0.000000000000      0.000000000000
**       4.155357276647      0.000000000000      0.000000000000
**  59 385 386 61
**  0 1 0 0
**       4.155357276647      0.000000000000      0.000000000000
**       4.794642848876      0.000000000000      0.000000000000
**  61 386 387 62
**  0 1 0 0
**       4.794642848876      0.000000000000      0.000000000000
**       5.428934213942      0.000000000000      0.000000000000
**  62 387 388 64
**  0 1 0 0
**       5.428934213942      0.000000000000      0.000000000000
**       6.164467106971      0.000000000000      0.000000000000
**  64 388 389 390
**  0 1 1 0
**       6.164467106971      0.000000000000      0.000000000000
**       6.900000000000      0.000000000000      0.000000000000
**       6.900000000000      0.337353507653      0.000000000000
**       6.900000000000      0.000000000000      0.000000000000
**  64 390 391 545
**  0 1 0 0
**       6.900000000000      0.337353507653      0.000000000000
**       6.900000000000      0.674707015307      0.000000000000
**  545 391 392 66
**  0 1 0 0
**       6.900000000000      0.674707015307      0.000000000000
**       6.900000000000      0.861328105607      0.000000000000
**  66 392 393 68
**  0 1 0 0
**       6.900000000000      0.861328105607      0.000000000000
**       6.900000000000      1.102978506562      0.000000000000
**  68 393 394 69
**  0 1 0 0
**       6.900000000000      1.102978506562      0.000000000000
**       6.900000000000      1.300000000000      0.000000000000
**  69 394 184 183
**  0 0 0 0
**  184 394 395 186
**  0 1 0 0
**       6.900000000000      1.300000000000      0.000000000000
**       7.351785746833      1.300000000000      0.000000000000
**  186 395 396 187
**  0 1 0 0
**       7.351785746833      1.300000000000      0.000000000000
**       7.700000000000      1.300000000000      0.000000000000
**  187 396 74 197
**  0 0 0 0
**  74 396 397 73
**  0 1 0 0
**       7.700000000000      1.300000000000      0.000000000000
**       7.700000000000      0.923535161770      0.000000000000
**  73 397 398 70
**  0 1 0 0
**       7.700000000000      0.923535161770      0.000000000000
**       7.700000000000      0.461767580885      0.000000000000
**  70 398 399 400
**  0 1 1 0
**       7.700000000000      0.461767580885      0.000000000000
**       7.700000000000      0.000000000000      0.000000000000
**       8.325000080684      0.000000000000      0.000000000000
**       7.700000000000      0.000000000000      0.000000000000
**  70 400 401 71
**  0 1 0 0
**       8.325000080684      0.000000000000      0.000000000000
**       8.950000161368      0.000000000000      0.000000000000
**  71 401 402 75
**  0 1 0 0
**       8.950000161368      0.000000000000      0.000000000000
**       9.519363667746      0.000000000000      0.000000000000
**  75 402 403 78
**  0 1 0 0
**       9.519363667746      0.000000000000      0.000000000000
**       9.903933956428      0.000000000000      0.000000000000
**  78 403 404 79
**  0 1 0 0
**       9.903933956428      0.000000000000      0.000000000000
**      10.228571090810      0.000000000000      0.000000000000
**  79 404 405 83
**  0 1 0 0
**      10.228571090810      0.000000000000      0.000000000000
**      10.548214500515      0.000000000000      0.000000000000
**  83 405 406 84
**  0 1 0 0
**      10.548214500515      0.000000000000      0.000000000000
**      10.867856762157      0.000000000000      0.000000000000
**  84 406 407 86
**  0 1 0 0
**      10.867856762157      0.000000000000      0.000000000000
**      11.187500283454      0.000000000000      0.000000000000
**  86 407 408 87
**  0 1 0 0
**      11.187500283454      0.000000000000      0.000000000000
**      11.507142704525      0.000000000000      0.000000000000
**  87 408 409 97
**  0 1 0 0
**      11.507142704525      0.000000000000      0.000000000000
**      11.826786385251      0.000000000000      0.000000000000
**  97 409 410 98
**  0 1 0 0
**      11.826786385251      0.000000000000      0.000000000000
**      12.146428501753      0.000000000000      0.000000000000
**  98 410 411 100
**  0 1 0 0
**      12.146428501753      0.000000000000      0.000000000000
**      12.466071179556      0.000000000000      0.000000000000
**  100 411 412 101
**  0 1 0 0
**      12.466071179556      0.000000000000      0.000000000000
**      12.785714589261      0.000000000000      0.000000000000
**  101 412 413 110
**  0 1 0 0
**      12.785714589261      0.000000000000      0.000000000000
**      13.110351723643      0.000000000000      0.000000000000
**  110 413 414 107
**  0 1 0 0
**      13.110351723643      0.000000000000      0.000000000000
**      13.494921925591      0.000000000000      0.000000000000
**  107 414 415 108
**  0 1 0 0
**      13.494921925591      0.000000000000      0.000000000000
**      14.069279927653      0.000000000000      0.000000000000
**  108 415 416 111
**  0 1 0 0
**      14.069279927653      0.000000000000      0.000000000000
**      14.703570997280      0.000000000000      0.000000000000
**  111 416 417 112
**  0 1 0 0
**      14.703570997280      0.000000000000      0.000000000000
**      15.342857037158      0.000000000000      0.000000000000
**  112 417 418 114
**  0 1 0 0
**      15.342857037158      0.000000000000      0.000000000000
**      15.982142882016      0.000000000000      0.000000000000
**  114 418 419 115
**  0 1 0 0
**      15.982142882016      0.000000000000      0.000000000000
**      16.621428824384      0.000000000000      0.000000000000
**  115 419 420 117
**  0 1 0 0
**      16.621428824384      0.000000000000      0.000000000000
**      17.260714697821      0.000000000000      0.000000000000
**  117 420 421 118
**  0 1 0 0
**      17.260714697821      0.000000000000      0.000000000000
**      17.900000709120      0.000000000000      0.000000000000
**  118 421 422 120
**  0 1 0 0
**      17.900000709120      0.000000000000      0.000000000000
**      18.539285503425      0.000000000000      0.000000000000
**  120 422 423 121
**  0 1 0 0
**      18.539285503425      0.000000000000      0.000000000000
**      19.178571215124      0.000000000000      0.000000000000
**  121 423 424 123
**  0 1 0 0
**      19.178571215124      0.000000000000      0.000000000000
**      19.817857117139      0.000000000000      0.000000000000
**  123 424 425 124
**  0 1 0 0
**      19.817857117139      0.000000000000      0.000000000000
**      20.457143038207      0.000000000000      0.000000000000
**  124 425 426 126
**  0 1 0 0
**      20.457143038207      0.000000000000      0.000000000000
**      21.096429001875      0.000000000000      0.000000000000
**  126 426 427 127
**  0 1 0 0
**      21.096429001875      0.000000000000      0.000000000000
**      21.735714944243      0.000000000000      0.000000000000
**  127 427 428 129
**  0 1 0 0
**      21.735714944243      0.000000000000      0.000000000000
**      22.374999738548      0.000000000000      0.000000000000
**  129 428 429 130
**  0 1 0 0
**      22.374999738548      0.000000000000      0.000000000000
**      23.014285409895      0.000000000000      0.000000000000
**  130 429 430 132
**  0 1 0 0
**      23.014285409895      0.000000000000      0.000000000000
**      23.653572500326      0.000000000000      0.000000000000
**  132 430 431 133
**  0 1 0 0
**      23.653572500326      0.000000000000      0.000000000000
**      24.292856146567      0.000000000000      0.000000000000
**  133 431 432 135
**  0 1 0 0
**      24.292856146567      0.000000000000      0.000000000000
**      24.932143236998      0.000000000000      0.000000000000
**  135 432 433 136
**  0 1 0 0
**      24.932143236998      0.000000000000      0.000000000000
**      25.571428908345      0.000000000000      0.000000000000
**  136 433 434 138
**  0 1 0 0
**      25.571428908345      0.000000000000      0.000000000000
**      26.210713702650      0.000000000000      0.000000000000
**  138 434 435 139
**  0 1 0 0
**      26.210713702650      0.000000000000      0.000000000000
**      26.849999645018      0.000000000000      0.000000000000
**  139 435 436 141
**  0 1 0 0
**      26.849999645018      0.000000000000      0.000000000000
**      27.489286735449      0.000000000000      0.000000000000
**  141 436 437 142
**  0 1 0 0
**      27.489286735449      0.000000000000      0.000000000000
**      28.128571529754      0.000000000000      0.000000000000
**  142 437 438 144
**  0 1 0 0
**      28.128571529754      0.000000000000      0.000000000000
**      28.767856324058      0.000000000000      0.000000000000
**  144 438 439 145
**  0 1 0 0
**      28.767856324058      0.000000000000      0.000000000000
**      29.407143143469      0.000000000000      0.000000000000
**  145 439 440 147
**  0 1 0 0
**      29.407143143469      0.000000000000      0.000000000000
**      30.046427937773      0.000000000000      0.000000000000
**  147 440 441 148
**  0 1 0 0
**      30.046427937773      0.000000000000      0.000000000000
**      30.685714151162      0.000000000000      0.000000000000
**  148 441 442 150
**  0 1 0 0
**      30.685714151162      0.000000000000      0.000000000000
**      31.324999822509      0.000000000000      0.000000000000
**  150 442 443 151
**  0 1 0 0
**      31.324999822509      0.000000000000      0.000000000000
**      31.964285764877      0.000000000000      0.000000000000
**  151 443 444 153
**  0 1 0 0
**      31.964285764877      0.000000000000      0.000000000000
**      32.603570559181      0.000000000000      0.000000000000
**  153 444 445 154
**  0 1 0 0
**      32.603570559181      0.000000000000      0.000000000000
**      33.242857649613      0.000000000000      0.000000000000
**  154 445 446 156
**  0 1 0 0
**      33.242857649613      0.000000000000      0.000000000000
**      33.882142443917      0.000000000000      0.000000000000
**  156 446 447 157
**  0 1 0 0
**      33.882142443917      0.000000000000      0.000000000000
**      34.511438640805      0.000000000000      0.000000000000
**  157 447 448 159
**  0 1 0 0
**      34.511438640805      0.000000000000      0.000000000000
**      35.155719320402      0.000000000000      0.000000000000
**  159 448 449 450
**  0 1 1 0
**      35.155719320402      0.000000000000      0.000000000000
**      35.800000000000      0.000000000000      0.000000000000
**      35.800000000000      0.617285168974      0.000000000000
**      35.800000000000      0.000000000000      0.000000000000
**  159 450 451 160
**  0 1 0 0
**      35.800000000000      0.617285168974      0.000000000000
**      35.800000000000      1.234570337947      0.000000000000
**  160 451 452 282
**  0 1 0 0
**      35.800000000000      1.234570337947      0.000000000000
**      35.800000000000      1.837500020254      0.000000000000
**  282 452 453 283
**  0 1 0 0
**      35.800000000000      1.837500020254      0.000000000000
**      35.800000000000      2.440429806236      0.000000000000
**  283 453 454 376
**  0 1 0 0
**      35.800000000000      2.440429806236      0.000000000000
**      35.800000000000      3.020214903118      0.000000000000
**  376 454 455 456
**  0 1 1 0
**      35.800000000000      3.020214903118      0.000000000000
**      35.800000000000      3.600000000000      0.000000000000
**      34.998395510147      3.600000000000      0.000000000000
**      35.800000000000      3.600000000000      0.000000000000
**  376 456 457 375
**  0 1 0 0
**      34.998395510147      3.600000000000      0.000000000000
**      34.196791020295      3.600000000000      0.000000000000
**  375 457 458 374
**  0 1 0 0
**      34.196791020295      3.600000000000      0.000000000000
**      33.562500046765      3.600000000000      0.000000000000
**  374 458 459 373
**  0 1 0 0
**      33.562500046765      3.600000000000      0.000000000000
**      32.923214596546      3.600000000000      0.000000000000
**  373 459 460 372
**  0 1 0 0
**      32.923214596546      3.600000000000      0.000000000000
**      32.283928654178      3.600000000000      0.000000000000
**  372 460 461 371
**  0 1 0 0
**      32.283928654178      3.600000000000      0.000000000000
**      31.644642793693      3.600000000000      0.000000000000
**  371 461 462 370
**  0 1 0 0
**      31.644642793693      3.600000000000      0.000000000000
**      31.005356986835      3.600000000000      0.000000000000
**  370 462 463 369
**  0 1 0 0
**      31.005356986835      3.600000000000      0.000000000000
**      30.366071044468      3.600000000000      0.000000000000
**  369 463 464 368
**  0 1 0 0
**      30.366071044468      3.600000000000      0.000000000000
**      29.726785540621      3.600000000000      0.000000000000
**  368 464 465 367
**  0 1 0 0
**      29.726785540621      3.600000000000      0.000000000000
**      29.087500254490      3.600000000000      0.000000000000
**  367 465 466 366
**  0 1 0 0
**      29.087500254490      3.600000000000      0.000000000000
**      28.448214447633      3.600000000000      0.000000000000
**  366 466 467 365
**  0 1 0 0
**      28.448214447633      3.600000000000      0.000000000000
**      27.808928602348      3.600000000000      0.000000000000
**  365 467 468 364
**  0 1 0 0
**      27.808928602348      3.600000000000      0.000000000000
**      27.169642659981      3.600000000000      0.000000000000
**  364 468 469 363
**  0 1 0 0
**      27.169642659981      3.600000000000      0.000000000000
**      26.530356673834      3.600000000000      0.000000000000
**  363 469 470 362
**  0 1 0 0
**      26.530356673834      3.600000000000      0.000000000000
**      25.891071305498      3.600000000000      0.000000000000
**  362 470 471 361
**  0 1 0 0
**      25.891071305498      3.600000000000      0.000000000000
**      25.251786072672      3.600000000000      0.000000000000
**  361 471 472 360
**  0 1 0 0
**      25.251786072672      3.600000000000      0.000000000000
**      24.612500245851      3.600000000000      0.000000000000
**  360 472 473 359
**  0 1 0 0
**      24.612500245851      3.600000000000      0.000000000000
**      23.973214318684      3.600000000000      0.000000000000
**  359 473 474 358
**  0 1 0 0
**      23.973214318684      3.600000000000      0.000000000000
**      23.333928396279      3.600000000000      0.000000000000
**  358 474 475 357
**  0 1 0 0
**      23.333928396279      3.600000000000      0.000000000000
**      22.694642574221      3.600000000000      0.000000000000
**  357 475 476 356
**  0 1 0 0
**      22.694642574221      3.600000000000      0.000000000000
**      22.055357341395      3.600000000000      0.000000000000
**  356 476 477 355
**  0 1 0 0
**      22.055357341395      3.600000000000      0.000000000000
**      21.416071973059      3.600000000000      0.000000000000
**  355 477 478 354
**  0 1 0 0
**      21.416071973059      3.600000000000      0.000000000000
**      20.776785456660      3.600000000000      0.000000000000
**  354 478 479 353
**  0 1 0 0
**      20.776785456660      3.600000000000      0.000000000000
**      20.137499514292      3.600000000000      0.000000000000
**  353 479 480 352
**  0 1 0 0
**      20.137499514292      3.600000000000      0.000000000000
**      19.498214719987      3.600000000000      0.000000000000
**  352 480 481 351
**  0 1 0 0
**      19.498214719987      3.600000000000      0.000000000000
**      18.858928913130      3.600000000000      0.000000000000
**  351 481 482 350
**  0 1 0 0
**      18.858928913130      3.600000000000      0.000000000000
**      18.219643106272      3.600000000000      0.000000000000
**  350 482 483 349
**  0 1 0 0
**      18.219643106272      3.600000000000      0.000000000000
**      17.580357163904      3.600000000000      0.000000000000
**  349 483 484 348
**  0 1 0 0
**      17.580357163904      3.600000000000      0.000000000000
**      16.941071221536      3.600000000000      0.000000000000
**  348 484 485 347
**  0 1 0 0
**      16.941071221536      3.600000000000      0.000000000000
**      16.301785853200      3.600000000000      0.000000000000
**  347 485 486 346
**  0 1 0 0
**      16.301785853200      3.600000000000      0.000000000000
**      15.662500484864      3.600000000000      0.000000000000
**  346 486 487 345
**  0 1 0 0
**      15.662500484864      3.600000000000      0.000000000000
**      15.025711978866      3.600000000000      0.000000000000
**  345 487 488 344
**  0 1 0 0
**      15.025711978866      3.600000000000      0.000000000000
**      14.423883731328      3.600000000000      0.000000000000
**  344 488 489 335
**  0 1 0 0
**      14.423883731328      3.600000000000      0.000000000000
**      13.976882889934      3.600000000000      0.000000000000
**  335 489 490 340
**  0 1 0 0
**      13.976882889934      3.600000000000      0.000000000000
**      13.747140094130      3.600000000000      0.000000000000
**  340 490 491 343
**  0 1 0 0
**      13.747140094130      3.600000000000      0.000000000000
**      13.549860255927      3.600000000000      0.000000000000
**  343 491 492 342
**  0 1 0 0
**      13.549860255927      3.600000000000      0.000000000000
**      13.262680816375      3.600000000000      0.000000000000
**  342 492 493 341
**  0 1 0 0
**      13.262680816375      3.600000000000      0.000000000000
**      12.945535855592      3.600000000000      0.000000000000
**  341 493 494 333
**  0 1 0 0
**      12.945535855592      3.600000000000      0.000000000000
**      12.625892884408      3.600000000000      0.000000000000
**  333 494 495 332
**  0 1 0 0
**      12.625892884408      3.600000000000      0.000000000000
**      12.306249339193      3.600000000000      0.000000000000
**  332 495 496 331
**  0 1 0 0
**      12.306249339193      3.600000000000      0.000000000000
**      11.986606942041      3.600000000000      0.000000000000
**  331 496 497 330
**  0 1 0 0
**      11.986606942041      3.600000000000      0.000000000000
**      11.666964544888      3.600000000000      0.000000000000
**  330 497 498 322
**  0 1 0 0
**      11.666964544888      3.600000000000      0.000000000000
**      11.347320999673      3.600000000000      0.000000000000
**  322 498 499 321
**  0 1 0 0
**      11.347320999673      3.600000000000      0.000000000000
**      11.027678028489      3.600000000000      0.000000000000
**  321 499 500 320
**  0 1 0 0
**      11.027678028489      3.600000000000      0.000000000000
**      10.708035631336      3.600000000000      0.000000000000
**  320 500 501 319
**  0 1 0 0
**      10.708035631336      3.600000000000      0.000000000000
**      10.388392795663      3.600000000000      0.000000000000
**  319 501 502 310
**  0 1 0 0
**      10.388392795663      3.600000000000      0.000000000000
**      10.068749824479      3.600000000000      0.000000000000
**  310 502 503 309
**  0 1 0 0
**      10.068749824479      3.600000000000      0.000000000000
**       9.751604154155      3.600000000000      0.000000000000
**  309 503 504 308
**  0 1 0 0
**       9.751604154155      3.600000000000      0.000000000000
**       9.464425153124      3.600000000000      0.000000000000
**  308 504 505 307
**  0 1 0 0
**       9.464425153124      3.600000000000      0.000000000000
**       9.267145753441      3.600000000000      0.000000000000
**  307 505 506 304
**  0 1 0 0
**       9.267145753441      3.600000000000      0.000000000000
**       9.039899245944      3.600000000000      0.000000000000
**  304 506 507 298
**  0 1 0 0
**       9.039899245944      3.600000000000      0.000000000000
**       8.630356673412      3.600000000000      0.000000000000
**  298 507 508 297
**  0 1 0 0
**       8.630356673412      3.600000000000      0.000000000000
**       8.165178336706      3.600000000000      0.000000000000
**  297 508 509 510
**  0 1 1 0
**       8.165178336706      3.600000000000      0.000000000000
**       7.700000000000      3.600000000000      0.000000000000
**       7.700000000000      3.175732433415      0.000000000000
**       7.700000000000      3.600000000000      0.000000000000
**  297 510 511 299
**  0 1 0 0
**       7.700000000000      3.175732433415      0.000000000000
**       7.700000000000      2.751464866830      0.000000000000
**  299 511 512 204
**  0 1 0 0
**       7.700000000000      2.751464866830      0.000000000000
**       7.700000000000      2.300000000000      0.000000000000
**  204 512 193 202
**  0 0 0 0
**  193 512 513 192
**  0 1 0 0
**       7.700000000000      2.300000000000      0.000000000000
**       7.351785714978      2.300000000000      0.000000000000
**  192 513 514 190
**  0 1 0 0
**       7.351785714978      2.300000000000      0.000000000000
**       6.900000000000      2.300000000000      0.000000000000
**  190 514 191 189
**  0 0 0 0
**  191 514 515 296
**  0 1 0 0
**       6.900000000000      2.300000000000      0.000000000000
**       6.900000000000      2.694042982968      0.000000000000
**  296 515 516 295
**  0 1 0 0
**       6.900000000000      2.694042982968      0.000000000000
**       6.900000000000      2.813671869880      0.000000000000
**  295 516 517 293
**  0 1 0 0
**       6.900000000000      2.813671869880      0.000000000000
**       6.900000000000      3.206835934940      0.000000000000
**  293 517 518 519
**  0 1 1 0
**       6.900000000000      3.206835934940      0.000000000000
**       6.900000000000      3.600000000000      0.000000000000
**       6.321791237592      3.600000000000      0.000000000000
**       6.900000000000      3.600000000000      0.000000000000
**  293 519 520 292
**  0 1 0 0
**       6.321791237592      3.600000000000      0.000000000000
**       5.743582475185      3.600000000000      0.000000000000
**  292 520 521 291
**  0 1 0 0
**       5.743582475185      3.600000000000      0.000000000000
**       5.114285705468      3.600000000000      0.000000000000
**  291 521 522 290
**  0 1 0 0
**       5.114285705468      3.600000000000      0.000000000000
**       4.474999992284      3.600000000000      0.000000000000
**  290 522 523 289
**  0 1 0 0
**       4.474999992284      3.600000000000      0.000000000000
**       3.835714285348      3.600000000000      0.000000000000
**  289 523 524 288
**  0 1 0 0
**       3.835714285348      3.600000000000      0.000000000000
**       3.196428565917      3.600000000000      0.000000000000
**  288 524 525 287
**  0 1 0 0
**       3.196428565917      3.600000000000      0.000000000000
**       2.557142852734      3.600000000000      0.000000000000
**  287 525 526 286
**  0 1 0 0
**       2.557142852734      3.600000000000      0.000000000000
**       1.917857421459      3.600000000000      0.000000000000
**  286 526 527 285
**  0 1 0 0
**       1.917857421459      3.600000000000      0.000000000000
**       1.288560404510      3.600000000000      0.000000000000
**  285 527 528 284
**  0 1 0 0
**       1.288560404510      3.600000000000      0.000000000000
**       0.644280202255      3.600000000000      0.000000000000
**  284 528 529 530
**  0 1 1 0
**       0.644280202255      3.600000000000      0.000000000000
**       0.000000000000      3.600000000000      0.000000000000
**       0.000000000000      3.020214834479      0.000000000000
**       0.000000000000      3.600000000000      0.000000000000
**  284 530 531 163
**  0 1 0 0
**       0.000000000000      3.020214834479      0.000000000000
**       0.000000000000      2.440429668957      0.000000000000
**  163 531 532 161
**  0 1 0 0
**       0.000000000000      2.440429668957      0.000000000000
**       0.000000000000      1.837500020254      0.000000000000
**  161 532 377 54
**  0 1 0 0
**       0.000000000000      1.837500020254      0.000000000000
**       0.000000000000      1.234570199551      0.000000000000
**  93 8 105 533
**  0 0 0 0
**  105 222 534 533
**  0 0 1 0
**      11.500000000000      1.570000000000      0.000000000000
**      11.552785943821      1.678588227289      0.000000000000
**  222 224 535 534
**  0 0 1 0
**      11.552785943821      1.678588227289      0.000000000000
**      11.667641215090      1.914861928185      0.000000000000
**  224 227 536 535
**  0 0 1 0
**      11.667641215090      1.914861928185      0.000000000000
**      11.850000000000      2.290000000000      0.000000000000
**  227 228 221 536
**  0 0 0 0
**  221 229 537 536
**  0 0 1 0
**      11.850000000000      2.290000000000      0.000000000000
**      11.792406255444      2.318796872278      0.000000000000
**  229 325 538 537
**  0 0 1 0
**      11.792406255444      2.318796872278      0.000000000000
**      11.490000000000      2.470000000000      0.000000000000
**  325 317 316 538
**  0 0 0 0
**  316 218 539 538
**  0 0 1 0
**      11.490000000000      2.470000000000      0.000000000000
**      11.424316986090      2.334880657099      0.000000000000
**  218 217 540 539
**  0 0 1 0
**      11.424316986090      2.334880657099      0.000000000000
**      11.315949924201      2.111954129784      0.000000000000
**  217 216 541 540
**  0 0 1 0
**      11.315949924201      2.111954129784      0.000000000000
**      11.140000000000      1.750000000000      0.000000000000
**  216 209 212 541
**  0 0 0 0
**  212 214 542 541
**  0 0 1 0
**      11.140000000000      1.750000000000      0.000000000000
**      11.250929687991      1.694535156004      0.000000000000
**  214 93 533 542
**  0 0 1 0
**      11.250929687991      1.694535156004      0.000000000000
**      11.500000000000      1.570000000000      0.000000000000
**  33 305 543 215
**  0 0 0 0
**  34 230 544 336
**  0 0 0 0
** --- --- --- ---
** --- --- --- ---
** --- --- --- ---
** --- --- --- ---
** --- --- --- ---
** --- --- --- ---
** --- --- --- ---
** --- --- --- ---
** --- --- --- ---
** --- --- --- ---
** --- --- --- ---
** --- --- --- ---
** --- --- --- ---
** --- --- --- ---
** --- --- --- ---
** --- --- --- ---
** --- --- --- ---
** --- --- --- ---
** --- --- --- ---
** --- --- --- ---
** --- --- --- ---
** --- --- --- ---
** --- --- --- ---
** --- --- --- ---
** --- --- --- ---
** --- --- --- ---
** --- --- --- ---
** --- --- --- ---
** --- --- --- ---
** --- --- --- ---
** --- --- --- ---
** --- --- --- ---
** --- --- --- ---
** --- --- --- ---
** --- --- --- ---
** --- --- --- ---
** --- --- --- ---
** --- --- --- ---
** --- --- --- ---
** --- --- --- ---
** --- --- --- ---
** --- --- --- ---
** --- --- --- ---
** --- --- --- ---
** --- --- --- ---
** --- --- --- ---
** --- --- --- ---
** --- --- --- ---
** --- --- --- ---
** --- --- --- ---
** --- --- --- ---
** --- --- --- ---
** --- --- --- ---
** --- --- --- ---
** --- --- --- ---
** --- --- --- ---
** --- --- --- ---
** --- --- --- ---
** --- --- --- ---
** --- --- --- ---
** --- --- --- ---
** --- --- --- ---
** --- --- --- ---
** --- --- --- ---
** --- --- --- ---
** --- --- --- ---
** --- --- --- ---
** --- --- --- ---
** --- --- --- ---
** --- --- --- ---
** --- --- --- ---
** --- --- --- ---
** --- --- --- ---
** --- --- --- ---
** --- --- --- ---
** --- --- --- ---
** --- --- --- ---
** --- --- --- ---
** --- --- --- ---
** --- --- --- ---
** --- --- --- ---
** --- --- --- ---
** --- --- --- ---
** --- --- --- ---
** --- --- --- ---
** --- --- --- ---
** --- --- --- ---
** --- --- --- ---
** --- --- --- ---
** --- --- --- ---
** --- --- --- ---
** --- --- --- ---
** --- --- --- ---
** --- --- --- ---
** --- --- --- ---
** --- --- --- ---
** --- --- --- ---
** --- --- --- ---
** --- --- --- ---
** --- --- --- ---
** --- --- --- ---
** --- --- --- ---
** --- --- --- ---
** --- --- --- ---
** --- --- --- ---
** --- --- --- ---
** --- --- --- ---
** --- --- --- ---
** --- --- --- ---
** --- --- --- ---
** --- --- --- ---
** --- --- --- ---
** --- --- --- ---
** --- --- --- ---
** --- --- --- ---
** --- --- --- ---
** --- --- --- ---
** --- --- --- ---
** --- --- --- ---
** --- --- --- ---
** --- --- --- ---
** --- --- --- ---
** --- --- --- ---
** --- --- --- ---
** --- --- --- ---
** --- --- --- ---
** --- --- --- ---
** --- --- --- ---
** --- --- --- ---
** --- --- --- ---
** --- --- --- ---
** --- --- --- ---
** --- --- --- ---
** --- --- --- ---
** --- --- --- ---
** --- --- --- ---
** --- --- --- ---
** --- --- --- ---
** --- --- --- ---
** --- --- --- ---
** --- --- --- ---
** --- --- --- ---
** --- --- --- ---
** --- --- --- ---
** --- --- --- ---
** --- --- --- ---
** --- --- --- ---
** --- --- --- ---
** --- --- --- ---
** --- --- --- ---
** --- --- --- ---
** --- --- --- ---
** --- --- --- ---
** --- --- --- ---
** --- --- --- ---
** --- --- --- ---
** --- --- --- ---
** --- --- --- ---
** --- --- --- ---
** --- --- --- ---
** --- --- --- ---
** --- --- --- ---
** --- --- --- ---
** --- --- --- ---
** --- --- --- ---
** --- --- --- ---
** --- --- --- ---
** --- --- --- ---
** --- --- --- ---
** --- --- --- ---
** --- --- --- ---
** --- --- --- ---
** --- --- --- ---
** --- --- --- ---
** --- --- --- ---
** --- --- --- ---
** --- --- --- ---
** --- --- --- ---
** --- --- --- ---
** --- --- --- ---
** --- --- --- ---
** --- --- --- ---
** --- --- --- ---
** --- --- --- ---
** --- --- --- ---
** --- --- --- ---
** --- --- --- ---
** --- --- --- ---
** --- --- --- ---
** --- --- --- ---
** --- --- --- ---
** --- --- --- ---
** --- --- --- ---
** --- --- --- ---
** --- --- --- ---
** --- --- --- ---
** --- --- --- ---
** --- --- --- ---
** --- --- --- ---
** --- --- --- ---
** --- --- --- ---
** --- --- --- ---
** --- --- --- ---
** --- --- --- ---
** --- --- --- ---
** --- --- --- ---
** --- --- --- ---
** --- --- --- ---
** --- --- --- ---
** --- --- --- ---
** --- --- --- ---
** --- --- --- ---
** --- --- --- ---
** --- --- --- ---
** --- --- --- ---
** --- --- --- ---
** --- --- --- ---
** --- --- --- ---
** --- --- --- ---
** --- --- --- ---
** --- --- --- ---
** --- --- --- ---
** --- --- --- ---
** --- --- --- ---
** --- --- --- ---
** --- --- --- ---
** --- --- --- ---
** --- --- --- ---
** --- --- --- ---
** --- --- --- ---
** --- --- --- ---
** --- --- --- ---
** --- --- --- ---
** --- --- --- ---
** --- --- --- ---
** --- --- --- ---
** --- --- --- ---
** --- --- --- ---
** --- --- --- ---
** --- --- --- ---
** --- --- --- ---
** --- --- --- ---
** --- --- --- ---
** --- --- --- ---
** --- --- --- ---
** --- --- --- ---
** --- --- --- ---
** --- --- --- ---
** --- --- --- ---
** --- --- --- ---
** --- --- --- ---
** --- --- --- ---
** --- --- --- ---
** --- --- --- ---
** --- --- --- ---
** --- --- --- ---
** --- --- --- ---
** --- --- --- ---
** --- --- --- ---
** --- --- --- ---
** --- --- --- ---
** --- --- --- ---
** --- --- --- ---
** --- --- --- ---
** --- --- --- ---
** --- --- --- ---
** --- --- --- ---
** --- --- --- ---
** --- --- --- ---
** --- --- --- ---
** --- --- --- ---
** --- --- --- ---
** --- --- --- ---
** --- --- --- ---
** --- --- --- ---
** --- --- --- ---
** --- --- --- ---
** --- --- --- ---
** --- --- --- ---
** --- --- --- ---
** --- --- --- ---
** --- --- --- ---
** --- --- --- ---
** --- --- --- ---
** --- --- --- ---
** --- --- --- ---
** --- --- --- ---
** --- --- --- ---
** --- --- --- ---
** --- --- --- ---
** --- --- --- ---
** --- --- --- ---
** --- --- --- ---
** --- --- --- ---
** --- Left --- ---
** --- Left --- Bottom
** --- Bottom --- ---
** --- Bottom --- ---
** --- Bottom --- ---
** --- Bottom --- ---
** --- Bottom --- ---
** --- Bottom --- ---
** --- Bottom --- ---
** --- Bottom --- ---
** --- Bottom --- Bottom
** --- Bottom --- ---
** --- Bottom --- ---
** --- Bottom --- ---
** --- Bottom --- ---
** --- --- --- ---
** --- Bottom --- ---
** --- Bottom --- ---
** --- --- --- ---
** --- Bottom --- ---
** --- Bottom --- ---
** --- Bottom --- Bottom
** --- Bottom --- ---
** --- Bottom --- ---
** --- Bottom --- ---
** --- Bottom --- ---
** --- Bottom --- ---
** --- Bottom --- ---
** --- Bottom --- ---
** --- Bottom --- ---
** --- Bottom --- ---
** --- Bottom --- ---
** --- Bottom --- ---
** --- Bottom --- ---
** --- Bottom --- ---
** --- Bottom --- ---
** --- Bottom --- ---
** --- Bottom --- ---
** --- Bottom --- ---
** --- Bottom --- ---
** --- Bottom --- ---
** --- Bottom --- ---
** --- Bottom --- ---
** --- Bottom --- ---
** --- Bottom --- ---
** --- Bottom --- ---
** --- Bottom --- ---
** --- Bottom --- ---
** --- Bottom --- ---
** --- Bottom --- ---
** --- Bottom --- ---
** --- Bottom --- ---
** --- Bottom --- ---
** --- Bottom --- ---
** --- Bottom --- ---
** --- Bottom --- ---
** --- Bottom --- ---
** --- Bottom --- ---
** --- Bottom --- ---
** --- Bottom --- ---
** --- Bottom --- ---
** --- Bottom --- ---
** --- Bottom --- ---
** --- Bottom --- ---
** --- Bottom --- ---
** --- Bottom --- ---
** --- Bottom --- ---
** --- Bottom --- ---
** --- Bottom --- ---
** --- Bottom --- ---
** --- Bottom --- Right
** --- Right --- ---
** --- Right --- ---
** --- Right --- ---
** --- Right --- ---
** --- Right --- Top
** --- Top --- ---
** --- Top --- ---
** --- Top --- ---
** --- Top --- ---
** --- Top --- ---
** --- Top --- ---
** --- Top --- ---
** --- Top --- ---
** --- Top --- ---
** --- Top --- ---
** --- Top --- ---
** --- Top --- ---
** --- Top --- ---
** --- Top --- ---
** --- Top --- ---
** --- Top --- ---
** --- Top --- ---
** --- Top --- ---
** --- Top --- ---
** --- Top --- ---
** --- Top --- ---
** --- Top --- ---
** --- Top --- ---
** --- Top --- ---
** --- Top --- ---
** --- Top --- ---
** --- Top --- ---
** --- Top --- ---
** --- Top --- ---
** --- Top --- ---
** --- Top --- ---
** --- Top --- ---
** --- Top --- ---
** --- Top --- ---
** --- Top --- ---
** --- Top --- ---
** --- Top --- ---
** --- Top --- ---
** --- Top --- ---
** --- Top --- ---
** --- Top --- ---
** --- Top --- ---
** --- Top --- ---
** --- Top --- ---
** --- Top --- ---
** --- Top --- ---
** --- Top --- ---
** --- Top --- ---
** --- Top --- ---
** --- Top --- ---
** --- Top --- ---
** --- Top --- ---
** --- Top --- Top
** --- Top --- ---
** --- Top --- ---
** --- --- --- ---
** --- Top --- ---
** --- Top --- ---
** --- --- --- ---
** --- Top --- ---
** --- Top --- ---
** --- Top --- ---
** --- Top --- Top
** --- Top --- ---
** --- Top --- ---
** --- Top --- ---
** --- Top --- ---
** --- Top --- ---
** --- Top --- ---
** --- Top --- ---
** --- Top --- ---
** --- Top --- ---
** --- Top --- Left
** --- Left --- ---
** --- Left --- ---
** --- Left --- ---
** --- --- --- ---
** --- --- --- Building
** --- --- --- Building
** --- --- --- Building
** --- --- --- ---
** --- --- --- Building
** --- --- --- Building
** --- --- --- ---
** --- --- --- Building
** --- --- --- Building
** --- --- --- Building
** --- --- --- ---
** --- --- --- Building
** --- --- --- Building
** --- --- --- ---
** --- --- --- ---
